#=======================================================
# FHI-aims file: ./geometry.in
# Created using the Atomic Simulation Environment (ASE)
# Tue Jun 10 15:25:07 2025
#=======================================================
lattice_vector 5.4088325884509993 0.0000000000639995 0.0000000001369997 
lattice_vector 0.0000000000629998 5.4088325742939993 0.0000000001030003 
lattice_vector 0.0000000001370002 0.0000000001020002 5.4088325742309999 
atom_frac 0.0183491398076832 0.0196695954617265 0.0120968466344458 Si
atom_frac -0.0190534330797998 0.5182191233228490 0.5025560886843188 Si
atom_frac 0.4936647223783903 0.0024572625840836 0.4826901762493272 Si
atom_frac 0.5036780053305155 0.4812875535108736 0.0215348738346773 Si
atom_frac 0.2403152401567027 0.2476036782743595 0.2564903208522519 Si
atom_frac 0.2858713108648031 0.7493384872346794 0.7483504399859661 Si
atom_frac 0.7464678016781422 0.2204659048545952 0.7362559992929968 Si
atom_frac 0.7307072128548927 0.7609583946991515 0.2400252544641910 Si
