#=======================================================
# FHI-aims file: ./geometry.in
# Created using the Atomic Simulation Environment (ASE)
# Tue Jun 10 14:46:28 2025
#=======================================================
lattice_vector 5.4088325884509993 0.0000000000639995 0.0000000001369997 
lattice_vector 0.0000000000629998 5.4088325742939993 0.0000000001030003 
lattice_vector 0.0000000001370002 0.0000000001020002 5.4088325742309999 
atom_frac -0.0047819416028458 0.0140363145216424 0.0052794251676648 Si
atom_frac 0.0024475394287826 0.4880190638272537 0.5152382393488898 Si
atom_frac 0.4726059109250484 -0.0128202288050746 0.4764136223808092 Si
atom_frac 0.5118549383701499 0.5028540828747275 0.0100358496388061 Si
atom_frac 0.2535511720451597 0.2672632065135763 0.2415654491910222 Si
atom_frac 0.2478151622169041 0.7551289203493228 0.7640999436716698 Si
atom_frac 0.7451799953621064 0.2430875213152161 0.7216075528916578 Si
atom_frac 0.7713272232078757 0.7424311194240401 0.2657599177100035 Si
