#=======================================================
# FHI-aims file: geometry.in
# Created using the Atomic Simulation Environment (ASE)
# Tue Jun 10 14:29:07 2025
#=======================================================
lattice_vector 5.4088325884509993 0.0000000000639995 0.0000000001369997 
lattice_vector 0.0000000000629998 5.4088325742939993 0.0000000001030003 
lattice_vector 0.0000000001370002 0.0000000001020002 5.4088325742309999 
atom -0.0150380014503795 -0.0268164336630596 0.0251341477599717 Si
atom 0.0743538108291352 2.7160873284280984 2.7122272198025978 Si
atom 2.6423981569657391 0.0123655732243799 2.6547954565525282 Si
atom 2.7071522036705149 2.6936055812994257 -0.0199239758402304 Si
atom 1.3877743921800252 1.3871897602018100 1.2940509431195582 Si
atom 1.3080750132046530 4.1323146913832147 4.1665680543925490 Si
atom 4.1198727124539047 1.3229686819732605 3.9923728505482958 Si
atom 4.0019094781041904 3.9887825405741526 1.4012730270886997 Si
