#=======================================================
# FHI-aims file: geometry.in.supercell.0900K.002
# Created using the Atomic Simulation Environment (ASE)
# Tue Jun 10 14:20:56 2025

# Additional information:
#  created from force constants
#  T = 900.0 K
#  quantum:             True
#  deterministic:       False
#  plus_minus:          False
#  gauge_eigenvectors:  False
#  Random seed:         593647994
#  Sample number:       3
#  Harmonic E_pot:        1.188eV (1148.53K)
#=======================================================
lattice_vector 5.4088325884509993 0.0000000000639995 0.0000000001369997 
lattice_vector 0.0000000000629998 5.4088325742939993 0.0000000001030003 
lattice_vector 0.0000000001370002 0.0000000001020002 5.4088325742309999 
atom 0.2216611601465018 0.0782838565820919 -0.0467758353967356 Si
    velocity 8.5373771538122849 -7.8210799294479365 -6.0383386636784042
atom -0.0450236918403061 2.7523944677751904 2.5026414435610449 Si
    velocity -6.6575938111814672 2.0889260315019826 -8.2980554366513264
atom 2.6165165498615899 0.0240136289514927 2.7488264312323523 Si
    velocity 2.5313751854153157 3.0970140695644175 -2.1661013989757887
atom 2.7524703298711550 2.6468466795710204 -0.0463284112180435 Si
    velocity 0.4116308686242662 -11.0745319168486436 8.0244712199643438
atom 1.4730069060415369 1.4012166995927238 1.3745483658992326 Si
    velocity 0.2716798083864304 5.6893506818232629 2.0357335355345563
atom 1.2182221949422662 3.8623075181355713 4.0961201091838992 Si
    velocity -3.9663978609558264 0.0892976887566865 0.3460692815580597
atom 4.0138197723958084 1.3204011092115959 4.1884581541752821 Si
    velocity -0.8102071329862157 7.1241962034116391 6.2346373878207180
atom 3.9758245448947505 4.1410337633255621 1.4090074659857399 Si
    velocity -0.3178642111147894 0.8068271712385892 -0.1384159255721567
