#=======================================================
# FHI-aims file: geometry.in.supercell.0900K.003
# Created using the Atomic Simulation Environment (ASE)
# Tue Jun 10 14:20:56 2025

# Additional information:
#  created from force constants
#  T = 900.0 K
#  quantum:             True
#  deterministic:       False
#  plus_minus:          False
#  gauge_eigenvectors:  False
#  Random seed:         593647994
#  Sample number:       4
#  Harmonic E_pot:        1.185eV (1145.66K)
#=======================================================
lattice_vector 5.4088325884509993 0.0000000000639995 0.0000000001369997 
lattice_vector 0.0000000000629998 5.4088325742939993 0.0000000001030003 
lattice_vector 0.0000000001370002 0.0000000001020002 5.4088325742309999 
atom 0.1365719928991855 -0.0911728842648240 0.0650666375164750 Si
    velocity 4.1754169896686522 2.5496848442888402 0.8960056482973544
atom 0.1175547576439511 2.5043307364252958 2.8073691727825287 Si
    velocity -13.1279719925702523 -1.1800270680357756 9.2848096245050815
atom 2.7512141229341762 0.2018384400176580 2.5406451003776565 Si
    velocity -0.5111306969163221 -0.0244413753741514 -8.0267304498721241
atom 2.6147561773393804 2.8664428565089453 -0.0116543596050361 Si
    velocity 8.6448224240417346 4.0359763260561303 -8.9412651748885690
atom 1.3133048931438551 1.3968096597664441 1.1448203143168945 Si
    velocity 4.9413039394512115 -0.2495071839730707 1.9298832622194666
atom 1.2770719843450600 4.0734679535488540 3.8511742634388115 Si
    velocity -6.7459879997057861 1.0966936696960419 4.4380165331106518
atom 3.9410102517753547 1.3594288979427800 4.2206491113471687 Si
    velocity 1.5855277215123564 -2.3356957569028247 -0.1233742604572837
atom 4.0750135864069552 3.9153520632473433 1.6084274832433203 Si
    velocity 1.0380196145184051 -3.8926834557551890 0.5426548170854211
