#=======================================================
# FHI-aims file: geometry.in.supercell.0900K.001
# Created using the Atomic Simulation Environment (ASE)
# Tue Jun 10 14:20:56 2025

# Additional information:
#  created from force constants
#  T = 900.0 K
#  quantum:             True
#  deterministic:       False
#  plus_minus:          False
#  gauge_eigenvectors:  False
#  Random seed:         593647994
#  Sample number:       2
#  Harmonic E_pot:        0.642eV (620.91K)
#=======================================================
lattice_vector 5.4088325884509993 0.0000000000639995 0.0000000001369997 
lattice_vector 0.0000000000629998 5.4088325742939993 0.0000000001030003 
lattice_vector 0.0000000001370002 0.0000000001020002 5.4088325742309999 
atom -0.0355334965129256 0.0320118889188721 0.0571816754622003 Si
    velocity -2.2569136865402859 1.1089133867295295 -4.4067476030585997
atom 0.0378018412215168 2.7121214913510423 2.4973534610112433 Si
    velocity -0.2820156934267442 6.5259835705191680 -1.0602110380030723
atom 2.7690592830264200 -0.0171066402408123 2.8609001293319047 Si
    velocity -3.8626633406862356 -6.6763432786053727 -5.9920380579340558
atom 2.6182134786091908 2.6506753717423304 0.0228887195705813 Si
    velocity 2.6396608496814302 6.7379995871702043 -2.6792434057521857
atom 1.5029303945254859 1.3133191435525582 1.2978968478187274 Si
    velocity -1.1044149151228790 -3.6433373717446278 -4.0535020967170796
atom 1.2396368196803025 4.0836463572896218 3.9378282990121223 Si
    velocity 0.0881734852928431 -11.0205094173545692 4.8954454510885919
atom 4.0756104583211235 1.3828095358945107 4.1206654006828005 Si
    velocity 8.4985148731363420 0.9634301966592359 2.9606840486814288
atom 4.0187789870460024 4.0690205749575155 1.4317831905299496 Si
    velocity -3.7203415723344690 6.0038633266264316 10.3356127016949753
