#=======================================================
# FHI-aims file: geometry.in.supercell.0900K.009
# Created using the Atomic Simulation Environment (ASE)
# Tue Jun 10 14:20:56 2025

# Additional information:
#  created from force constants
#  T = 900.0 K
#  quantum:             True
#  deterministic:       False
#  plus_minus:          False
#  gauge_eigenvectors:  False
#  Random seed:         593647994
#  Sample number:       10
#  Harmonic E_pot:        0.805eV (778.24K)
#=======================================================
lattice_vector 5.4088325884509993 0.0000000000639995 0.0000000001369997 
lattice_vector 0.0000000000629998 5.4088325742939993 0.0000000001030003 
lattice_vector 0.0000000001370002 0.0000000001020002 5.4088325742309999 
atom -0.0080151327018437 -0.1291211701581841 0.0096006424864494 Si
    velocity -2.4126655216224635 0.0564334768432032 0.5125400130000007
atom -0.0196779182460621 2.7158426188644258 2.7495530783503832 Si
    velocity -8.9839610647973949 -1.1398295819262643 7.6004488250588267
atom 2.4896299664395798 0.0967992122734584 2.6036753474922119 Si
    velocity 8.6707835621958385 4.2962288722548383 -2.3272076710887672
atom 2.9507804750404971 2.7498955422716267 0.0165436967853470 Si
    velocity -5.9746605682754916 -0.6511054072681908 5.2602259757453673
atom 1.2194295917845528 1.4839803680389760 1.2951530351756484 Si
    velocity 1.0342327209191664 -6.9278083338352081 5.3919125343363872
atom 1.4281782717721090 4.0956821088796636 4.1651956238287440 Si
    velocity 3.3559956012719692 7.6263359541024931 -8.5509064465836637
atom 4.1652796688093066 1.1187780164350944 3.8627216093644861 Si
    velocity 4.7129865874104668 3.0690807051789650 -5.8294872595367382
atom 4.0008928430693009 4.0946410267175191 1.5240546899448355 Si
    velocity -0.4027113171020928 -6.3293356853498359 -2.0575259709314109
