#=======================================================
# FHI-aims file: geometry.in.supercell.0900K.004
# Created using the Atomic Simulation Environment (ASE)
# Tue Jun 10 14:20:56 2025

# Additional information:
#  created from force constants
#  T = 900.0 K
#  quantum:             True
#  deterministic:       False
#  plus_minus:          False
#  gauge_eigenvectors:  False
#  Random seed:         593647994
#  Sample number:       5
#  Harmonic E_pot:        1.104eV (1068.01K)
#=======================================================
lattice_vector 5.4088325884509993 0.0000000000639995 0.0000000001369997 
lattice_vector 0.0000000000629998 5.4088325742939993 0.0000000001030003 
lattice_vector 0.0000000001370002 0.0000000001020002 5.4088325742309999 
atom -0.0411494279888525 0.1949898589650065 0.1470200873441432 Si
    velocity 4.5244048866176749 3.9793697254038345 -4.2381093880973602
atom -0.0370230814159256 2.6071310166645927 2.9878884816736866 Si
    velocity 2.1786550468289541 9.2907773630367014 -3.6400500128042825
atom 2.7569165270932587 -0.1062850357074933 2.5306261113969861 Si
    velocity -13.0653373733997178 -5.4401656380064081 4.8572863145188823
atom 2.6950250433840726 2.7211353189379071 -0.2056034841736502 Si
    velocity -1.4851269126612192 0.5274580337517096 1.5698451328553802
atom 1.4350382573978562 1.4641018123856764 1.3222627476931053 Si
    velocity 6.5322408533002827 -8.4766276128864142 3.0495450800909754
atom 1.1367694674349023 4.2717401970243367 3.9834226777861192 Si
    velocity -2.1142960456360469 0.4019696177625552 -7.2765590737955375
atom 4.0053505884251681 1.1259691036346620 4.0736927272685604 Si
    velocity 1.1119377620963338 4.2415889805009259 0.6657536399170979
atom 4.2755703915162124 3.9477154514519128 1.3871883744204012 Si
    velocity 2.3175217828537389 -4.5243704695629017 5.0122883073148445
