#=======================================================
# FHI-aims file: geometry.in.supercell.0900K.007
# Created using the Atomic Simulation Environment (ASE)
# Tue Jun 10 14:20:56 2025

# Additional information:
#  created from force constants
#  T = 900.0 K
#  quantum:             True
#  deterministic:       False
#  plus_minus:          False
#  gauge_eigenvectors:  False
#  Random seed:         593647994
#  Sample number:       8
#  Harmonic E_pot:        0.893eV (863.25K)
#=======================================================
lattice_vector 5.4088325884509993 0.0000000000639995 0.0000000001369997 
lattice_vector 0.0000000000629998 5.4088325742939993 0.0000000001030003 
lattice_vector 0.0000000001370002 0.0000000001020002 5.4088325742309999 
atom 0.0430522678698124 -0.1283577275742940 -0.0700219686475286 Si
    velocity 2.7813137847826548 5.7724738637606281 -5.4672027333834325
atom -0.0524469168176437 2.8407377971200405 2.7571348805303861 Si
    velocity -1.2473275460459465 2.1834204088713847 7.0234366260238978
atom 2.5352771678772390 0.1067332289901807 2.8230073344734836 Si
    velocity -10.8055603614815787 -5.2271150883371558 -0.0615286859200814
atom 2.9141571453850297 2.6550522085644768 0.0787823857730334 Si
    velocity -2.2332137425870022 -0.2168483477254268 -2.3178780295216552
atom 1.2453425639074811 1.2353866022797908 1.1478979822028701 Si
    velocity 8.4427681252745987 -5.3441499925580587 11.0749203641500813
atom 1.4497623033871565 3.9068805193835772 4.0940597974305399 Si
    velocity 3.5849062683556654 3.5017393523452145 -2.6700377270409890
atom 4.1332266570211242 1.3405512595053446 4.0112820224771681 Si
    velocity -2.2468808701848220 -1.6997968078368553 -9.3996728093290436
atom 3.9581265774249919 4.2695138349434538 1.3843552891831246 Si
    velocity 1.7239943418864310 1.0302766114802688 1.8179629950212217
