#=======================================================
# FHI-aims file: ./geometry.in
# Created using the Atomic Simulation Environment (ASE)
# Tue Jun 10 14:22:20 2025
#=======================================================
lattice_vector 5.4088325884509993 0.0000000000639995 0.0000000001369997 
lattice_vector 0.0000000000629998 5.4088325742939993 0.0000000001030003 
lattice_vector 0.0000000001370002 0.0000000001020002 5.4088325742309999 
atom_frac -0.0024695142732194 0.0001423183227079 0.0083824539812800 Si
atom_frac -0.0036004680774169 0.4879204444449448 0.5011550071618903 Si
atom_frac 0.5045144027661348 -0.0060040876147207 0.4899220578789160 Si
atom_frac 0.5033996677122573 0.5141813896556430 0.0000224610971051 Si
atom_frac 0.2670307140781120 0.2474052655366193 0.2430775196690712 Si
atom_frac 0.2451170281480620 0.7643872156758116 0.7453477123898351 Si
atom_frac 0.7388498081117281 0.2542726323408535 0.7514444562441778 Si
atom_frac 0.7471583615387383 0.7376948216481255 0.2606483315780079 Si
