#=======================================================
# FHI-aims file: geometry.in
# Created using the Atomic Simulation Environment (ASE)
# Tue Jun 10 14:41:35 2025
#=======================================================
lattice_vector 5.4088325884509993 0.0000000000639995 0.0000000001369997 
lattice_vector 0.0000000000629998 5.4088325742939993 0.0000000001030003 
lattice_vector 0.0000000001370002 0.0000000001020002 5.4088325742309999 
atom -0.0668640022242113 -0.0173090721181305 -0.0713442947565762 Si
atom 0.0527647025826931 2.6951489838350389 2.6545661112385055 Si
atom 2.6441481294226494 0.0156687029612026 2.7283312710690790 Si
atom 2.7175368032849496 2.6856479590222104 0.0756031473152969 Si
atom 1.3247995909307142 1.3156687872937229 1.2359483041622346 Si
atom 1.3958580578204021 3.9884603372859693 4.1152310779047614 Si
atom 4.0850747083445604 1.4162777231580730 4.0398505360857815 Si
atom 4.0731797756368184 4.1269343020212430 1.4483115703983449 Si
