#=======================================================
# FHI-aims file: geometry.in
# Created using the Atomic Simulation Environment (ASE)
# Tue Jun 10 14:40:34 2025
#=======================================================
lattice_vector 5.4088325884509993 0.0000000000639995 0.0000000001369997 
lattice_vector 0.0000000000629998 5.4088325742939993 0.0000000001030003 
lattice_vector 0.0000000001370002 0.0000000001020002 5.4088325742309999 
atom 0.0476723840308591 0.1102486784947614 -0.0232633127188211 Si
atom -0.1081785826004924 2.7681810111360572 2.7152946559844917 Si
atom 2.7673250362741175 -0.1271612096503079 2.6693874049575146 Si
atom 2.7111350461618029 2.6800325099167233 0.0282778820123791 Si
atom 1.3511344829059211 1.2910769442732792 1.5531747555286608 Si
atom 1.3478075871299104 4.0374072287417082 4.0675352749789777 Si
atom 3.9555428911657708 1.3412789402465994 3.9432896256118477 Si
atom 4.1540589209037275 4.1254336201568504 1.2728014370469369 Si
