#=======================================================
# FHI-aims file: ./geometry.in
# Created using the Atomic Simulation Environment (ASE)
# Tue Jun 10 14:50:33 2025
#=======================================================
lattice_vector 5.4088325884509993 0.0000000000639995 0.0000000001369997 
lattice_vector 0.0000000000629998 5.4088325742939993 0.0000000001030003 
lattice_vector 0.0000000001370002 0.0000000001020002 5.4088325742309999 
atom_frac -0.0126526823005713 -0.0023081502168300 0.0233244828368060 Si
atom_frac 0.0096866572449308 0.5069218288796364 0.5060348058374539 Si
atom_frac 0.5150935673277797 0.0126198497050864 0.5001273879265499 Si
atom_frac 0.5010882982343903 0.4993821452645216 -0.0193865578654332 Si
atom_frac 0.2531181799688140 0.2537795423236489 0.2504292935963625 Si
atom_frac 0.2333671766116635 0.7673998106299839 0.7491770518396195 Si
atom_frac 0.7626743820876304 0.2395219334603953 0.7375511307523996 Si
atom_frac 0.7376244208615764 0.7226830399111727 0.2527424050781868 Si
