#=======================================================
# FHI-aims file: ./geometry.in
# Created using the Atomic Simulation Environment (ASE)
# Tue Jun 10 14:38:00 2025
#=======================================================
lattice_vector 5.4088325884509993 0.0000000000639995 0.0000000001369997 
lattice_vector 0.0000000000629998 5.4088325742939993 0.0000000001030003 
lattice_vector 0.0000000001370002 0.0000000001020002 5.4088325742309999 
atom_frac 0.0075686702464762 -0.0100236583072390 0.0015719495781578 Si
atom_frac -0.0171548146861305 0.5069170236334292 0.4879113781113490 Si
atom_frac 0.4956765341976689 -0.0145015797293769 0.5076551177661062 Si
atom_frac 0.5001111411182952 0.4982200695188723 0.0026136209015224 Si
atom_frac 0.2404315276299032 0.2633384439830205 0.2676195228605998 Si
atom_frac 0.2609406973496565 0.7505453752061475 0.7425717062532425 Si
atom_frac 0.7602162963375226 0.2409563635384686 0.7468703340129740 Si
atom_frac 0.7522099477698444 0.7645479622067383 0.2431863705147484 Si
