#=======================================================
# FHI-aims file: ./geometry.in
# Created using the Atomic Simulation Environment (ASE)
# Tue Jun 10 14:24:17 2025
#=======================================================
lattice_vector 5.4088325884509993 0.0000000000639995 0.0000000001369997 
lattice_vector 0.0000000000629998 5.4088325742939993 0.0000000001030003 
lattice_vector 0.0000000001370002 0.0000000001020002 5.4088325742309999 
atom_frac -0.0090249259252520 -0.0013247691248251 -0.0046157084465527 Si
atom_frac 0.0115975329860734 0.4912438469944942 0.4992706757801925 Si
atom_frac 0.5008817240044051 0.0085377052041045 0.4959437956389420 Si
atom_frac 0.5032535286045926 0.5100235968546828 -0.0075967790052182 Si
atom_frac 0.2515914102280762 0.2430695537303322 0.2503746685813170 Si
atom_frac 0.2489549532606034 0.7488793064109602 0.7489241831039906 Si
atom_frac 0.7452668854807286 0.2589876442565627 0.7547540702326511 Si
atom_frac 0.7474788913779038 0.7405831156520013 0.2629450941154524 Si
