#=======================================================
# FHI-aims file: geometry.in.supercell.0500K.009
# Created using the Atomic Simulation Environment (ASE)
# Tue Jun 10 14:20:53 2025

# Additional information:
#  created from force constants
#  T = 500.0 K
#  quantum:             True
#  deterministic:       False
#  plus_minus:          False
#  gauge_eigenvectors:  False
#  Random seed:         425732295
#  Sample number:       10
#  Harmonic E_pot:        0.464eV (448.77K)
#=======================================================
lattice_vector 5.4088325884509993 0.0000000000639995 0.0000000001369997 
lattice_vector 0.0000000000629998 5.4088325742939993 0.0000000001030003 
lattice_vector 0.0000000001370002 0.0000000001020002 5.4088325742309999 
atom -0.0154541664578362 -0.0189807268709662 -0.0230761770614314 Si
    velocity -2.0997685399968589 -3.3056774592865410 2.3818786504161684
atom -0.0336186642783248 2.4807660026030880 2.7139366930325886 Si
    velocity -2.7038473612282550 -5.3302473977472911 1.2767204311713627
atom 2.7366245112810339 0.0656635400776166 2.7056046536827894 Si
    velocity 2.2895111421331116 -1.8289146658287396 -1.7017881433725706
atom 2.6447254816642949 2.8626918753015946 -0.0637778735900736 Si
    velocity -3.4974921385911202 3.8047097301395638 -5.7018510228248420
atom 1.3984311015710844 1.3060473883206094 1.2653943005399864 Si
    velocity 0.9208284099365766 4.7237478469737315 2.5788925739419342
atom 1.2418877227638319 4.1321839931384519 3.9413119233807330 Si
    velocity -2.6613680119411671 -7.9622516790807349 1.3334236935613615
atom 4.1355050706570049 1.3647682041220581 4.1865728361795584 Si
    velocity 8.4416075758872307 5.9061894937110448 0.7960022684439862
atom 4.1183967085442905 4.0333574467362245 1.5005313672466940 Si
    velocity -0.6894710761995145 3.9924441311189658 -0.9632784513374000
