#=======================================================
# FHI-aims file: geometry.in.supercell.0500K.023
# Created using the Atomic Simulation Environment (ASE)
# Tue Jun 10 14:20:53 2025

# Additional information:
#  created from force constants
#  T = 500.0 K
#  quantum:             True
#  deterministic:       False
#  plus_minus:          False
#  gauge_eigenvectors:  False
#  Random seed:         425732295
#  Sample number:       24
#  Harmonic E_pot:        0.443eV (428.30K)
#=======================================================
lattice_vector 5.4088325884509993 0.0000000000639995 0.0000000001369997 
lattice_vector 0.0000000000629998 5.4088325742939993 0.0000000001030003 
lattice_vector 0.0000000001370002 0.0000000001020002 5.4088325742309999 
atom -0.0071809828865281 0.0161246965293317 0.0155848899312888 Si
    velocity 0.6357422228608782 -0.5265500105291320 -5.9843904457864125
atom -0.0104049297885761 2.6518735785540617 2.7622635424081827 Si
    velocity 1.5269613788263094 -1.3333778986475233 -6.3103231100693513
atom 2.7096989780865970 -0.0228095257437246 2.5734065893667077 Si
    velocity 0.4679141146779706 5.2862047856224459 0.2497567722573935
atom 2.7664276867355229 2.8000240473674820 0.0475314020348567 Si
    velocity -1.2308991752129299 -9.3297173529244262 1.5648678484989011
atom 1.3640630503415194 1.3552963391527211 1.1994351758718498 Si
    velocity -1.9664442726922122 6.3516350212895238 5.7428792685240122
atom 1.2766795200603065 4.1118254129470708 4.0862808627277571 Si
    velocity 5.6066838349388162 -2.8063096305255346 2.7565898376488818
atom 3.9396622366908156 1.3214192457735610 4.0221706718595529 Si
    velocity -1.8125404021886460 -1.0424742231342943 -0.2716441492949894
atom 4.1875522068379558 3.9927439287057749 1.5198245892169850 Si
    velocity -3.2274177012101855 3.4005893088489412 2.2522639782215661
