#=======================================================
# FHI-aims file: geometry.in.supercell.0500K.016
# Created using the Atomic Simulation Environment (ASE)
# Tue Jun 10 14:20:53 2025

# Additional information:
#  created from force constants
#  T = 500.0 K
#  quantum:             True
#  deterministic:       False
#  plus_minus:          False
#  gauge_eigenvectors:  False
#  Random seed:         425732295
#  Sample number:       17
#  Harmonic E_pot:        0.400eV (387.08K)
#=======================================================
lattice_vector 5.4088325884509993 0.0000000000639995 0.0000000001369997 
lattice_vector 0.0000000000629998 5.4088325742939993 0.0000000001030003 
lattice_vector 0.0000000001370002 0.0000000001020002 5.4088325742309999 
atom -0.1679693990057029 0.0623648068838391 -0.0667882148167113 Si
    velocity -4.4133217396169728 5.5955529653659042 0.6636862148727067
atom 0.0881574205314516 2.6679110177139083 2.7862636645412771 Si
    velocity -0.9592227329081829 -0.1388250582779606 2.1451600631332668
atom 2.7810403602526685 -0.1012652152181842 2.6600267884036484 Si
    velocity 7.5500597542404000 1.2430952064436898 0.1672965477855831
atom 2.6596470302464690 2.7730035912149367 0.0955887770333489 Si
    velocity 2.9982524202218088 3.0797278167592572 -1.4631900647691838
atom 1.3645007992414577 1.3225490921564187 1.3159146765877561 Si
    velocity -9.7460732419783316 -3.0095988500603745 5.8798728815804937
atom 1.3871416374581882 4.2009402294679647 4.0760489746515649 Si
    velocity 1.2512638951054909 -5.1787055908670210 -3.1356981874378786
atom 4.0088292210898677 1.3863799449892080 3.9662613587566322 Si
    velocity -0.5404332402380247 -3.1716291675773709 -0.4470924274646204
atom 4.1051506960116875 3.9146142561872841 1.3931816982532461 Si
    velocity 3.8594748851738143 1.5803826782138755 -3.8100350277003661
