#=======================================================
# FHI-aims file: geometry.in.supercell.0500K.008
# Created using the Atomic Simulation Environment (ASE)
# Tue Jun 10 14:20:53 2025

# Additional information:
#  created from force constants
#  T = 500.0 K
#  quantum:             True
#  deterministic:       False
#  plus_minus:          False
#  gauge_eigenvectors:  False
#  Random seed:         425732295
#  Sample number:       9
#  Harmonic E_pot:        0.435eV (420.37K)
#=======================================================
lattice_vector 5.4088325884509993 0.0000000000639995 0.0000000001369997 
lattice_vector 0.0000000000629998 5.4088325742939993 0.0000000001030003 
lattice_vector 0.0000000001370002 0.0000000001020002 5.4088325742309999 
atom -0.0236645673215944 -0.0212858234042339 -0.1285974042152438 Si
    velocity 5.3237657828500202 -3.6133766422496820 -2.5139359628456872
atom -0.0005152744637221 2.6555815661098818 2.6761592379756887 Si
    velocity -5.7504010627639603 2.2167353231449805 -1.1623179012923739
atom 2.6386753777049541 0.0373350171286798 2.6945183237322285 Si
    velocity -1.9619998965749890 0.6015297296832028 -3.9941307015554797
atom 2.6921834617593410 2.8159192816466931 0.0669990383160939 Si
    velocity 4.2222766768997246 7.0982994405399022 1.3488510063517118
atom 1.3261723625284916 1.3409821254754435 1.2897517422878304 Si
    velocity 0.7777883206277397 -6.7140169506569434 3.3419780183500207
atom 1.3784414718097762 4.0297203884235291 4.1505139397121953 Si
    velocity 4.3306331032846757 -0.0704259882970159 -1.5565630101211156
atom 4.0747703287032220 1.3463089332264715 4.0832323694540120 Si
    velocity -1.4719027950528889 2.2352084506745480 7.2441810013807668
atom 4.1404346049619853 4.0219362345655920 1.3939204761460744 Si
    velocity -5.4701601292703215 -1.7539533628389912 -2.7080624502678434
