#=======================================================
# FHI-aims file: geometry.in.supercell.0500K.028
# Created using the Atomic Simulation Environment (ASE)
# Tue Jun 10 14:20:53 2025

# Additional information:
#  created from force constants
#  T = 500.0 K
#  quantum:             True
#  deterministic:       False
#  plus_minus:          False
#  gauge_eigenvectors:  False
#  Random seed:         425732295
#  Sample number:       29
#  Harmonic E_pot:        0.470eV (454.20K)
#=======================================================
lattice_vector 5.4088325884509993 0.0000000000639995 0.0000000001369997 
lattice_vector 0.0000000000629998 5.4088325742939993 0.0000000001030003 
lattice_vector 0.0000000001370002 0.0000000001020002 5.4088325742309999 
atom 0.0064472370583144 -0.0232910564277076 -0.1276482049074926 Si
    velocity -2.0948753806272697 4.4284899993429203 4.6643152164563269
atom -0.0611273499795047 2.7565696136655680 2.6673720934405480 Si
    velocity 7.1864731948461174 4.2290773728681232 -3.0214314364408987
atom 2.7429851222173487 0.0100843624461392 2.7028061609185907 Si
    velocity -8.2670440148787101 -3.2123136307592275 3.3670805274273103
atom 2.6371243370186015 2.6096763681164528 0.1538803104207294 Si
    velocity 1.7466802105205101 -3.6853297825948279 -8.4251307915856053
atom 1.2668274967796289 1.3141310424039521 1.3640409834828762 Si
    velocity 2.2370064750107224 -2.8084835462254141 3.5816023246188005
atom 1.4630136506444311 4.1486820227114025 4.1124549164716928 Si
    velocity 0.2522440459578761 -2.1379427554115180 0.5742454852671091
atom 4.0554581131556375 1.3803310816572378 4.0090233798474575 Si
    velocity -2.4807990891389506 0.1043299618265547 -1.8842896301472924
atom 4.1157691588331913 4.0303142889459860 1.3445680837264653 Si
    velocity 1.4203145583097045 3.0821723809533914 1.1436083044042504
