#=======================================================
# FHI-aims file: geometry.in.supercell.0500K.019
# Created using the Atomic Simulation Environment (ASE)
# Tue Jun 10 14:20:53 2025

# Additional information:
#  created from force constants
#  T = 500.0 K
#  quantum:             True
#  deterministic:       False
#  plus_minus:          False
#  gauge_eigenvectors:  False
#  Random seed:         425732295
#  Sample number:       20
#  Harmonic E_pot:        0.366eV (354.02K)
#=======================================================
lattice_vector 5.4088325884509993 0.0000000000639995 0.0000000001369997 
lattice_vector 0.0000000000629998 5.4088325742939993 0.0000000001030003 
lattice_vector 0.0000000001370002 0.0000000001020002 5.4088325742309999 
atom -0.0826611984157816 0.0520411045705935 0.0264434602050915 Si
    velocity -0.0899362621042142 3.6917891041812019 -3.8592181119159390
atom 0.0889788511104895 2.8256249669583218 2.7780845319103316 Si
    velocity -5.8680199237145656 2.2556699607867370 7.6554124861187702
atom 2.7148104594256148 -0.0903946502681485 2.6735010167786255 Si
    velocity 0.6483288968428466 -3.7488261230455744 -5.3706712196309550
atom 2.6626466396293682 2.5740717585377499 0.0250602862393465 Si
    velocity 3.2039671988324092 -3.2069791475335738 -2.1922814899068497
atom 1.2729328768149830 1.3078118275793509 1.3484071743614330 Si
    velocity -0.6790325372650916 5.4354367019238596 1.8324631934806268
atom 1.4083308431345745 4.2090354242357249 4.2156606523440612 Si
    velocity -5.4539995100369660 -5.1295280088324455 0.4462718292280897
atom 4.0363343464763499 1.3628576594455812 3.9423631064702978 Si
    velocity 7.3007499652042771 0.6717706051186572 -1.9544012848511079
atom 4.1251249477144372 3.9854496324434732 1.2169774951034729 Si
    velocity 0.9379421722413063 0.0306669074011383 3.4424245974773662
