#=======================================================
# FHI-aims file: geometry.in.supercell.0500K.012
# Created using the Atomic Simulation Environment (ASE)
# Tue Jun 10 14:20:53 2025

# Additional information:
#  created from force constants
#  T = 500.0 K
#  quantum:             True
#  deterministic:       False
#  plus_minus:          False
#  gauge_eigenvectors:  False
#  Random seed:         425732295
#  Sample number:       13
#  Harmonic E_pot:        0.518eV (501.27K)
#=======================================================
lattice_vector 5.4088325884509993 0.0000000000639995 0.0000000001369997 
lattice_vector 0.0000000000629998 5.4088325742939993 0.0000000001030003 
lattice_vector 0.0000000001370002 0.0000000001020002 5.4088325742309999 
atom 0.1832040084539961 0.0362111046859989 -0.1843083326756896 Si
    velocity 0.1732668992232246 -1.1097155338856974 -4.4875644986002579
atom -0.0339967722115571 2.6702834455919002 2.7272589726944809 Si
    velocity -0.6963569570947471 2.2400666326822538 -3.5279150666830383
atom 2.6506432339496362 -0.0537682855950115 2.7522726840050882 Si
    velocity 6.0102946608817751 -7.5518535047971547 0.7108811551321456
atom 2.6845400908395178 2.7680741186393250 0.0430246621468356 Si
    velocity -6.1142807117298092 4.6870381579972396 0.1950310574918025
atom 1.3680548959998109 1.3260283819126732 1.3929896018852068 Si
    velocity -5.7375990023509615 -6.5696472498205241 -1.7684791256216765
atom 1.3624662821560640 3.8914265802367347 4.0576436930706743 Si
    velocity 3.7887755993153851 1.1894643333838564 2.7665926606129383
atom 3.8603922664104520 1.3715819917216365 4.0870988084670881 Si
    velocity -0.3230609002913031 4.5350922585379454 1.3497674799357047
atom 4.1511937605437570 4.2166603861514700 1.3505176338116371 Si
    velocity 2.8989604120464358 2.5795549059020799 4.7616863377323817
