#=======================================================
# FHI-aims file: geometry.in.supercell.0500K.029
# Created using the Atomic Simulation Environment (ASE)
# Tue Jun 10 14:20:53 2025

# Additional information:
#  created from force constants
#  T = 500.0 K
#  quantum:             True
#  deterministic:       False
#  plus_minus:          False
#  gauge_eigenvectors:  False
#  Random seed:         425732295
#  Sample number:       30
#  Harmonic E_pot:        0.637eV (615.82K)
#=======================================================
lattice_vector 5.4088325884509993 0.0000000000639995 0.0000000001369997 
lattice_vector 0.0000000000629998 5.4088325742939993 0.0000000001030003 
lattice_vector 0.0000000001370002 0.0000000001020002 5.4088325742309999 
atom 0.0864712116623473 -0.1161932509928831 0.0780434479216911 Si
    velocity -3.1232762434118428 5.8898739468905159 -2.5254773571367641
atom 0.0436336781492696 2.8248436241446528 2.6430415186109948 Si
    velocity 2.0664292202121852 4.6994402301974496 -1.4077577501712477
atom 2.7239706172939844 0.0311889999778251 2.6427393810684818 Si
    velocity -4.3805576085806717 2.2621161781994239 2.4205316314754755
atom 2.6337910184631466 2.5725100251551223 -0.0177917742769600 Si
    velocity 3.9610671878029042 2.1465255703290289 -1.0076301617779975
atom 1.3606100733756310 1.4572615474428683 1.4859645653636626 Si
    velocity -1.8222370950633449 -4.0088273943195070 1.4319277057252500
atom 1.3195439732993506 4.0326992204077401 4.1161335772530370 Si
    velocity -4.3700329093821617 -7.9478806230009642 -5.0954209177816283
atom 4.1569325177487890 1.3656056004381316 4.0376327909468266 Si
    velocity 1.3473984723220123 0.5112199415163144 6.3454995697247227
atom 3.9015446761655457 4.0585819570625272 1.2407342165301367 Si
    velocity 6.3212089761009187 -3.5524678498122593 -0.1616727200578098
