#=======================================================
# FHI-aims file: geometry.in
# Created using the Atomic Simulation Environment (ASE)
# Tue Jun 10 14:49:26 2025
#=======================================================
lattice_vector 5.4088325884509993 0.0000000000639995 0.0000000001369997 
lattice_vector 0.0000000000629998 5.4088325742939993 0.0000000001030003 
lattice_vector 0.0000000001370002 0.0000000001020002 5.4088325742309999 
atom -0.0385338477406639 -0.0326236876920237 0.0612752118446206 Si
atom 0.1133602053758539 2.6379996917443527 2.6848995291372661 Si
atom 2.7446761808630789 0.0166728926858688 2.6127478095835612 Si
atom 2.5484262651611096 2.7779939420580524 -0.0357030514087794 Si
atom 1.3647940892414969 1.2578885727035098 1.2828266365263759 Si
atom 1.3469793865536919 4.2615734189299879 4.0105889260085679 Si
atom 3.9894238449223489 1.2813116844051180 4.1554474716733694 Si
atom 4.1573716414569999 4.0256812085667422 1.4544151900447522 Si
