#=======================================================
# FHI-aims file: ./geometry.in
# Created using the Atomic Simulation Environment (ASE)
# Wed Aug  5 14:20:13 2020
#=======================================================
lattice_vector 27.0925275734099991 -0.0000000001199966 0.0000000001100009 
lattice_vector -0.0000000001199984 27.0925271957499980 0.0000000000199991 
lattice_vector 0.0000000001099993 0.0000000000199984 27.0925271960799989 
atom_frac 0.0003691054665426 0.0000000000004000 0.9999999999978999 Si
atom_frac 0.0000000000011000 0.1000000000004000 0.0999999999979000 Si
atom_frac 0.0000000000011000 0.2000000000004000 0.1999999999979000 Si
atom_frac 0.0000000000011000 0.3000000000004000 0.2999999999978999 Si
atom_frac 0.0000000000011000 0.4000000000004000 0.3999999999979000 Si
atom_frac 0.0000000000011000 0.5000000000003999 0.4999999999978998 Si
atom_frac 0.0000000000011000 0.6000000000003999 0.5999999999978999 Si
atom_frac 0.0000000000011000 0.7000000000004001 0.6999999999978999 Si
atom_frac 0.0000000000011000 0.8000000000003999 0.7999999999978998 Si
atom_frac 0.0000000000011000 0.9000000000004001 0.8999999999979001 Si
atom_frac 0.1000000000011000 0.0000000000004000 0.0999999999979000 Si
atom_frac 0.1000000000011000 0.1000000000004000 0.1999999999978999 Si
atom_frac 0.1000000000011000 0.2000000000004000 0.2999999999979000 Si
atom_frac 0.1000000000011000 0.3000000000004000 0.3999999999979000 Si
atom_frac 0.1000000000011000 0.4000000000004000 0.4999999999979000 Si
atom_frac 0.1000000000011000 0.5000000000003999 0.5999999999978999 Si
atom_frac 0.1000000000011000 0.6000000000004001 0.6999999999979000 Si
atom_frac 0.1000000000011000 0.7000000000004001 0.7999999999978999 Si
atom_frac 0.1000000000011000 0.8000000000003998 0.8999999999978999 Si
atom_frac 0.1000000000010999 0.9000000000004001 0.9999999999978999 Si
atom_frac 0.2000000000011000 0.0000000000004000 0.1999999999979000 Si
atom_frac 0.2000000000011000 0.1000000000004000 0.2999999999978999 Si
atom_frac 0.2000000000011000 0.2000000000004000 0.3999999999978999 Si
atom_frac 0.2000000000011000 0.3000000000003999 0.4999999999978999 Si
atom_frac 0.2000000000011000 0.4000000000004001 0.5999999999979000 Si
atom_frac 0.2000000000011000 0.5000000000003999 0.6999999999978999 Si
atom_frac 0.2000000000011000 0.6000000000004000 0.7999999999978999 Si
atom_frac 0.2000000000011000 0.7000000000003999 0.8999999999979000 Si
atom_frac 0.2000000000011000 0.8000000000003999 0.9999999999978999 Si
atom_frac 0.2000000000011000 0.9000000000004001 0.0999999999979002 Si
atom_frac 0.3000000000011000 0.0000000000004000 0.2999999999979000 Si
atom_frac 0.3000000000011002 0.1000000000004000 0.3999999999979000 Si
atom_frac 0.3000000000011000 0.2000000000004000 0.4999999999979000 Si
atom_frac 0.3000000000010999 0.3000000000004001 0.5999999999978998 Si
atom_frac 0.3000000000011001 0.4000000000004001 0.6999999999979001 Si
atom_frac 0.3000000000010999 0.5000000000004000 0.7999999999978998 Si
atom_frac 0.3000000000010999 0.6000000000004000 0.8999999999979000 Si
atom_frac 0.3000000000010999 0.7000000000004001 0.9999999999978997 Si
atom_frac 0.3000000000011000 0.8000000000003999 0.0999999999979000 Si
atom_frac 0.3000000000011000 0.9000000000004001 0.1999999999979001 Si
atom_frac 0.4000000000011001 0.0000000000004000 0.3999999999979000 Si
atom_frac 0.4000000000011001 0.1000000000004000 0.4999999999979000 Si
atom_frac 0.4000000000011000 0.2000000000004000 0.5999999999979000 Si
atom_frac 0.4000000000011000 0.3000000000004001 0.6999999999979000 Si
atom_frac 0.4000000000011000 0.4000000000004000 0.7999999999978999 Si
atom_frac 0.4000000000011000 0.5000000000003998 0.8999999999978998 Si
atom_frac 0.4000000000011000 0.6000000000004000 0.9999999999978997 Si
atom_frac 0.4000000000011000 0.7000000000003999 0.0999999999979000 Si
atom_frac 0.4000000000011000 0.8000000000003999 0.1999999999978999 Si
atom_frac 0.4000000000011000 0.9000000000004001 0.2999999999979002 Si
atom_frac 0.5000000000011000 0.0000000000004000 0.4999999999979000 Si
atom_frac 0.5000000000011000 0.1000000000004000 0.5999999999979000 Si
atom_frac 0.5000000000011000 0.2000000000004000 0.6999999999979001 Si
atom_frac 0.5000000000011000 0.3000000000004000 0.7999999999979001 Si
atom_frac 0.5000000000011001 0.4000000000004000 0.8999999999979000 Si
atom_frac 0.5000000000011000 0.5000000000003999 0.9999999999978999 Si
atom_frac 0.5000000000011000 0.6000000000004000 0.0999999999979000 Si
atom_frac 0.5000000000011000 0.7000000000004001 0.1999999999979001 Si
atom_frac 0.5000000000011000 0.8000000000003999 0.2999999999978999 Si
atom_frac 0.5000000000011000 0.9000000000004003 0.3999999999979003 Si
atom_frac 0.6000000000011000 0.0000000000004000 0.5999999999978999 Si
atom_frac 0.6000000000011000 0.1000000000004000 0.6999999999978999 Si
atom_frac 0.6000000000011001 0.2000000000004000 0.7999999999978998 Si
atom_frac 0.6000000000011000 0.3000000000003999 0.8999999999979000 Si
atom_frac 0.6000000000011000 0.4000000000004000 0.9999999999979000 Si
atom_frac 0.6000000000011000 0.5000000000003999 0.0999999999979000 Si
atom_frac 0.6000000000011000 0.6000000000004001 0.1999999999979001 Si
atom_frac 0.6000000000011000 0.7000000000004001 0.2999999999978999 Si
atom_frac 0.6000000000011001 0.8000000000004001 0.3999999999978999 Si
atom_frac 0.6000000000011000 0.9000000000004003 0.4999999999979001 Si
atom_frac 0.7000000000011001 0.0000000000004000 0.6999999999979000 Si
atom_frac 0.7000000000011002 0.1000000000004000 0.7999999999978999 Si
atom_frac 0.7000000000011002 0.2000000000004000 0.8999999999978998 Si
atom_frac 0.7000000000011002 0.3000000000003999 0.9999999999978997 Si
atom_frac 0.7000000000011001 0.4000000000004000 0.0999999999979000 Si
atom_frac 0.7000000000011001 0.5000000000003999 0.1999999999978999 Si
atom_frac 0.7000000000011002 0.6000000000004000 0.2999999999978998 Si
atom_frac 0.7000000000011001 0.7000000000004001 0.3999999999979000 Si
atom_frac 0.7000000000011002 0.8000000000004001 0.4999999999978998 Si
atom_frac 0.7000000000011001 0.9000000000004001 0.5999999999979002 Si
atom_frac 0.8000000000011003 0.0000000000004000 0.7999999999979001 Si
atom_frac 0.8000000000011001 0.1000000000004000 0.8999999999979000 Si
atom_frac 0.8000000000011003 0.2000000000004000 0.9999999999979000 Si
atom_frac 0.8000000000011001 0.3000000000004000 0.0999999999979000 Si
atom_frac 0.8000000000011001 0.4000000000004001 0.1999999999979001 Si
atom_frac 0.8000000000011003 0.5000000000004000 0.2999999999978999 Si
atom_frac 0.8000000000011003 0.6000000000004000 0.3999999999979000 Si
atom_frac 0.8000000000011001 0.7000000000004002 0.4999999999978999 Si
atom_frac 0.8000000000011003 0.8000000000003999 0.5999999999979000 Si
atom_frac 0.8000000000011001 0.9000000000004001 0.6999999999979001 Si
atom_frac 0.9000000000010999 0.0000000000004000 0.8999999999978996 Si
atom_frac 0.9000000000010998 0.1000000000004000 0.9999999999978997 Si
atom_frac 0.9000000000010998 0.2000000000004001 0.0999999999978998 Si
atom_frac 0.9000000000010998 0.3000000000004001 0.1999999999978999 Si
atom_frac 0.9000000000010998 0.4000000000004000 0.2999999999978999 Si
atom_frac 0.9000000000010998 0.5000000000003999 0.3999999999978998 Si
atom_frac 0.9000000000010998 0.6000000000004001 0.4999999999978998 Si
atom_frac 0.9000000000010998 0.7000000000003999 0.5999999999978998 Si
atom_frac 0.9000000000010998 0.8000000000003999 0.6999999999978999 Si
atom_frac 0.9000000000010998 0.9000000000004001 0.7999999999978998 Si
atom_frac 0.1000000000011000 0.1000000000004000 0.9999999999979000 Si
atom_frac 0.1000000000011000 0.2000000000004000 0.0999999999979000 Si
atom_frac 0.1000000000011000 0.3000000000004001 0.1999999999978999 Si
atom_frac 0.1000000000011000 0.4000000000004000 0.2999999999978999 Si
atom_frac 0.1000000000011000 0.5000000000004001 0.3999999999978999 Si
atom_frac 0.1000000000011000 0.6000000000004001 0.4999999999978998 Si
atom_frac 0.1000000000011000 0.7000000000004001 0.5999999999979000 Si
atom_frac 0.1000000000011000 0.8000000000003998 0.6999999999978999 Si
atom_frac 0.1000000000010999 0.9000000000004000 0.7999999999978998 Si
atom_frac 0.1000000000010999 0.0000000000004001 0.8999999999979001 Si
atom_frac 0.2000000000011000 0.1000000000004000 0.0999999999979000 Si
atom_frac 0.2000000000011000 0.2000000000004000 0.1999999999979000 Si
atom_frac 0.2000000000011000 0.3000000000003999 0.2999999999978999 Si
atom_frac 0.2000000000011000 0.4000000000004000 0.3999999999979000 Si
atom_frac 0.2000000000011000 0.5000000000004000 0.4999999999979000 Si
atom_frac 0.2000000000011000 0.6000000000003999 0.5999999999978999 Si
atom_frac 0.2000000000011000 0.7000000000003999 0.6999999999979000 Si
atom_frac 0.2000000000011000 0.8000000000003999 0.7999999999978999 Si
atom_frac 0.2000000000010999 0.9000000000003999 0.8999999999978999 Si
atom_frac 0.2000000000010999 0.0000000000004001 0.9999999999979000 Si
atom_frac 0.3000000000011001 0.1000000000004000 0.1999999999979000 Si
atom_frac 0.3000000000011000 0.2000000000004000 0.2999999999979000 Si
atom_frac 0.3000000000011001 0.3000000000004000 0.3999999999979000 Si
atom_frac 0.3000000000011001 0.4000000000004000 0.4999999999979000 Si
atom_frac 0.3000000000010999 0.5000000000004000 0.5999999999979000 Si
atom_frac 0.3000000000011000 0.6000000000004000 0.6999999999978997 Si
atom_frac 0.3000000000011000 0.7000000000004001 0.7999999999978999 Si
atom_frac 0.3000000000011001 0.8000000000003999 0.8999999999979000 Si
atom_frac 0.3000000000010999 0.9000000000003999 0.9999999999978999 Si
atom_frac 0.3000000000010999 0.0000000000004001 0.0999999999979002 Si
atom_frac 0.4000000000011000 0.1000000000004000 0.2999999999978999 Si
atom_frac 0.4000000000011000 0.2000000000004000 0.3999999999978999 Si
atom_frac 0.4000000000011000 0.3000000000004000 0.4999999999978999 Si
atom_frac 0.4000000000011000 0.4000000000004000 0.5999999999979000 Si
atom_frac 0.4000000000011000 0.5000000000004000 0.6999999999978999 Si
atom_frac 0.4000000000011000 0.6000000000003999 0.7999999999978998 Si
atom_frac 0.4000000000011000 0.7000000000003999 0.8999999999978999 Si
atom_frac 0.4000000000011000 0.8000000000003999 0.9999999999978997 Si
atom_frac 0.4000000000011000 0.9000000000003999 0.0999999999979000 Si
atom_frac 0.4000000000011000 0.0000000000004001 0.1999999999979001 Si
atom_frac 0.5000000000011000 0.1000000000004000 0.3999999999979000 Si
atom_frac 0.5000000000011000 0.2000000000004000 0.4999999999979000 Si
atom_frac 0.5000000000011000 0.3000000000004001 0.5999999999979000 Si
atom_frac 0.5000000000011001 0.4000000000004000 0.6999999999979000 Si
atom_frac 0.5000000000011000 0.5000000000004000 0.7999999999978999 Si
atom_frac 0.5000000000011001 0.6000000000003999 0.8999999999978998 Si
atom_frac 0.5000000000010999 0.7000000000004001 0.9999999999978999 Si
atom_frac 0.5000000000010999 0.8000000000003999 0.0999999999979000 Si
atom_frac 0.5000000000010999 0.9000000000003999 0.1999999999978998 Si
atom_frac 0.5000000000010999 0.0000000000004001 0.2999999999979002 Si
atom_frac 0.6000000000011000 0.1000000000004000 0.4999999999979000 Si
atom_frac 0.6000000000011000 0.2000000000004000 0.5999999999979000 Si
atom_frac 0.6000000000011000 0.3000000000003999 0.6999999999979001 Si
atom_frac 0.6000000000011000 0.4000000000003999 0.7999999999979001 Si
atom_frac 0.6000000000011000 0.5000000000004000 0.8999999999979000 Si
atom_frac 0.6000000000011000 0.6000000000004000 0.9999999999978999 Si
atom_frac 0.6000000000011000 0.7000000000004001 0.0999999999979000 Si
atom_frac 0.6000000000011000 0.8000000000003999 0.1999999999979000 Si
atom_frac 0.6000000000011000 0.9000000000004000 0.2999999999978999 Si
atom_frac 0.6000000000011000 0.0000000000004001 0.3999999999979003 Si
atom_frac 0.7000000000011001 0.1000000000004000 0.5999999999978999 Si
atom_frac 0.7000000000011002 0.2000000000004000 0.6999999999978999 Si
atom_frac 0.7000000000011002 0.3000000000003999 0.7999999999978998 Si
atom_frac 0.7000000000011002 0.4000000000003999 0.8999999999978999 Si
atom_frac 0.7000000000011002 0.5000000000003999 0.9999999999978999 Si
atom_frac 0.7000000000011001 0.6000000000003999 0.0999999999979000 Si
atom_frac 0.7000000000010999 0.7000000000003999 0.1999999999979001 Si
atom_frac 0.7000000000011002 0.8000000000003999 0.2999999999978999 Si
atom_frac 0.7000000000011002 0.9000000000004000 0.3999999999979000 Si
atom_frac 0.7000000000011002 0.0000000000004001 0.4999999999979001 Si
atom_frac 0.8000000000010998 0.1000000000004000 0.6999999999979000 Si
atom_frac 0.8000000000011001 0.2000000000004000 0.7999999999978999 Si
atom_frac 0.8000000000010999 0.3000000000003999 0.8999999999979000 Si
atom_frac 0.8000000000010999 0.4000000000004001 0.9999999999978999 Si
atom_frac 0.8000000000010999 0.5000000000004000 0.0999999999979000 Si
atom_frac 0.8000000000010999 0.6000000000004000 0.1999999999978998 Si
atom_frac 0.8000000000010999 0.7000000000004001 0.2999999999978999 Si
atom_frac 0.8000000000011001 0.8000000000004001 0.3999999999978999 Si
atom_frac 0.8000000000010999 0.9000000000004000 0.4999999999978999 Si
atom_frac 0.8000000000010999 0.0000000000004001 0.5999999999979001 Si
atom_frac 0.9000000000011000 0.1000000000004000 0.7999999999979001 Si
atom_frac 0.9000000000011001 0.2000000000004000 0.8999999999979000 Si
atom_frac 0.9000000000011000 0.3000000000004001 0.9999999999979000 Si
atom_frac 0.9000000000011000 0.4000000000004000 0.0999999999979000 Si
atom_frac 0.9000000000011000 0.5000000000004000 0.1999999999979001 Si
atom_frac 0.9000000000011001 0.6000000000003999 0.2999999999978998 Si
atom_frac 0.9000000000011000 0.7000000000004001 0.3999999999979000 Si
atom_frac 0.9000000000011001 0.8000000000004001 0.4999999999978998 Si
atom_frac 0.9000000000011000 0.9000000000003999 0.5999999999978999 Si
atom_frac 0.9000000000011000 0.0000000000004001 0.6999999999979001 Si
atom_frac 0.0000000000011000 0.1000000000004000 0.8999999999978998 Si
atom_frac 0.0000000000010998 0.2000000000004000 0.9999999999978999 Si
atom_frac 0.0000000000010998 0.3000000000004000 0.0999999999978998 Si
atom_frac 0.0000000000010998 0.4000000000004000 0.1999999999978999 Si
atom_frac 0.0000000000010998 0.5000000000003999 0.2999999999978999 Si
atom_frac 0.0000000000010998 0.6000000000003999 0.3999999999978997 Si
atom_frac 0.0000000000010998 0.7000000000004001 0.4999999999978999 Si
atom_frac 0.0000000000010998 0.8000000000003999 0.5999999999978999 Si
atom_frac 0.0000000000010998 0.9000000000003998 0.6999999999978997 Si
atom_frac 0.0000000000010998 0.0000000000004001 0.7999999999978999 Si
atom_frac 0.2000000000011000 0.2000000000004000 0.9999999999978999 Si
atom_frac 0.2000000000011000 0.3000000000003999 0.0999999999979000 Si
atom_frac 0.2000000000011000 0.4000000000004000 0.1999999999979000 Si
atom_frac 0.2000000000010999 0.5000000000003999 0.2999999999979000 Si
atom_frac 0.2000000000010999 0.6000000000004001 0.3999999999979000 Si
atom_frac 0.2000000000010999 0.7000000000004001 0.4999999999978999 Si
atom_frac 0.2000000000010999 0.8000000000003999 0.5999999999979000 Si
atom_frac 0.2000000000010999 0.9000000000003999 0.6999999999979000 Si
atom_frac 0.2000000000011000 0.0000000000003999 0.7999999999978999 Si
atom_frac 0.2000000000010999 0.1000000000004002 0.8999999999979001 Si
atom_frac 0.3000000000010999 0.2000000000004000 0.0999999999979000 Si
atom_frac 0.3000000000011000 0.3000000000004000 0.1999999999978999 Si
atom_frac 0.3000000000011000 0.4000000000004000 0.2999999999978999 Si
atom_frac 0.3000000000011000 0.5000000000004000 0.3999999999978999 Si
atom_frac 0.3000000000011000 0.6000000000004000 0.4999999999978999 Si
atom_frac 0.3000000000010999 0.7000000000003999 0.5999999999978999 Si
atom_frac 0.3000000000011000 0.8000000000003999 0.6999999999979000 Si
atom_frac 0.3000000000010999 0.9000000000003999 0.7999999999978999 Si
atom_frac 0.3000000000010999 0.0000000000003999 0.8999999999978999 Si
atom_frac 0.3000000000010999 0.1000000000004002 0.9999999999978999 Si
atom_frac 0.4000000000011000 0.2000000000004000 0.1999999999979000 Si
atom_frac 0.4000000000011000 0.3000000000003999 0.2999999999978999 Si
atom_frac 0.4000000000011001 0.4000000000004000 0.3999999999979000 Si
atom_frac 0.4000000000011000 0.5000000000004000 0.4999999999979000 Si
atom_frac 0.4000000000011000 0.6000000000004000 0.5999999999978999 Si
atom_frac 0.4000000000011000 0.7000000000003996 0.6999999999978999 Si
atom_frac 0.4000000000011000 0.8000000000003999 0.7999999999978998 Si
atom_frac 0.4000000000011000 0.9000000000003999 0.8999999999979000 Si
atom_frac 0.4000000000011000 0.0000000000003999 0.9999999999978999 Si
atom_frac 0.4000000000011000 0.1000000000004002 0.0999999999979002 Si
atom_frac 0.5000000000011000 0.2000000000004000 0.2999999999979000 Si
atom_frac 0.5000000000011000 0.3000000000003999 0.3999999999979000 Si
atom_frac 0.5000000000011001 0.4000000000003999 0.4999999999979000 Si
atom_frac 0.5000000000011000 0.5000000000004000 0.5999999999979000 Si
atom_frac 0.5000000000011001 0.6000000000003999 0.6999999999979000 Si
atom_frac 0.5000000000011000 0.7000000000003999 0.7999999999978999 Si
atom_frac 0.5000000000011000 0.8000000000003999 0.8999999999978999 Si
atom_frac 0.5000000000010999 0.9000000000003998 0.9999999999978999 Si
atom_frac 0.5000000000010999 0.0000000000003999 0.0999999999979000 Si
atom_frac 0.5000000000010999 0.1000000000004002 0.1999999999979001 Si
atom_frac 0.6000000000011001 0.2000000000004000 0.3999999999978999 Si
atom_frac 0.6000000000011000 0.3000000000003999 0.4999999999978998 Si
atom_frac 0.6000000000011000 0.4000000000004000 0.5999999999979000 Si
atom_frac 0.6000000000011000 0.5000000000004001 0.6999999999979000 Si
atom_frac 0.6000000000011001 0.6000000000004001 0.7999999999978999 Si
atom_frac 0.6000000000011000 0.7000000000003999 0.8999999999978998 Si
atom_frac 0.6000000000011001 0.8000000000003998 0.9999999999978999 Si
atom_frac 0.6000000000011000 0.9000000000004000 0.0999999999979000 Si
atom_frac 0.6000000000011000 0.0000000000003999 0.1999999999978999 Si
atom_frac 0.6000000000011000 0.1000000000004002 0.2999999999979002 Si
atom_frac 0.7000000000011002 0.2000000000004000 0.4999999999979000 Si
atom_frac 0.7000000000011001 0.3000000000003999 0.5999999999978998 Si
atom_frac 0.7000000000011001 0.4000000000004000 0.6999999999979001 Si
atom_frac 0.7000000000011002 0.5000000000003999 0.7999999999979001 Si
atom_frac 0.7000000000011002 0.6000000000004000 0.8999999999979000 Si
atom_frac 0.7000000000011001 0.7000000000003999 0.9999999999978997 Si
atom_frac 0.7000000000011002 0.8000000000003999 0.0999999999979000 Si
atom_frac 0.7000000000011001 0.9000000000003999 0.1999999999979001 Si
atom_frac 0.7000000000011002 0.0000000000003999 0.2999999999978999 Si
atom_frac 0.7000000000011001 0.1000000000004002 0.3999999999979002 Si
atom_frac 0.8000000000011001 0.2000000000004000 0.5999999999979000 Si
atom_frac 0.8000000000010999 0.3000000000003999 0.6999999999979000 Si
atom_frac 0.8000000000011001 0.4000000000004000 0.7999999999978999 Si
atom_frac 0.8000000000011001 0.5000000000004000 0.8999999999978999 Si
atom_frac 0.8000000000011001 0.6000000000004000 0.9999999999978997 Si
atom_frac 0.8000000000010998 0.7000000000003999 0.0999999999979000 Si
atom_frac 0.8000000000010999 0.8000000000003999 0.1999999999979000 Si
atom_frac 0.8000000000010999 0.9000000000003999 0.2999999999978999 Si
atom_frac 0.8000000000011001 0.0000000000003999 0.3999999999979000 Si
atom_frac 0.8000000000010999 0.1000000000004002 0.4999999999979000 Si
atom_frac 0.9000000000010999 0.2000000000004000 0.6999999999979000 Si
atom_frac 0.9000000000010999 0.3000000000003999 0.7999999999978999 Si
atom_frac 0.9000000000010999 0.4000000000004000 0.8999999999979000 Si
atom_frac 0.9000000000010999 0.5000000000004000 0.9999999999979000 Si
atom_frac 0.9000000000010999 0.6000000000004000 0.0999999999979000 Si
atom_frac 0.9000000000010998 0.7000000000003997 0.1999999999978999 Si
atom_frac 0.9000000000011000 0.8000000000003999 0.2999999999978999 Si
atom_frac 0.9000000000010999 0.9000000000004000 0.3999999999979000 Si
atom_frac 0.9000000000010999 0.0000000000003999 0.4999999999978999 Si
atom_frac 0.9000000000010998 0.1000000000004002 0.5999999999979002 Si
atom_frac 0.0000000000011000 0.2000000000004000 0.7999999999979001 Si
atom_frac 0.0000000000011000 0.3000000000003999 0.8999999999979000 Si
atom_frac 0.0000000000011000 0.4000000000004000 0.9999999999978999 Si
atom_frac 0.0000000000011000 0.5000000000004000 0.0999999999979000 Si
atom_frac 0.0000000000011000 0.6000000000004000 0.1999999999979001 Si
atom_frac 0.0000000000011000 0.7000000000003999 0.2999999999978999 Si
atom_frac 0.0000000000011000 0.8000000000004001 0.3999999999978999 Si
atom_frac 0.0000000000011000 0.9000000000004000 0.4999999999978999 Si
atom_frac 0.0000000000011000 0.0000000000003999 0.5999999999979000 Si
atom_frac 0.0000000000011000 0.1000000000004002 0.6999999999979001 Si
atom_frac 0.1000000000010999 0.2000000000004000 0.8999999999978996 Si
atom_frac 0.1000000000010999 0.3000000000004000 0.9999999999978999 Si
atom_frac 0.1000000000010999 0.4000000000004000 0.0999999999978998 Si
atom_frac 0.1000000000010999 0.5000000000004000 0.1999999999978998 Si
atom_frac 0.1000000000010999 0.6000000000004001 0.2999999999978998 Si
atom_frac 0.1000000000010999 0.7000000000004001 0.3999999999978999 Si
atom_frac 0.1000000000010999 0.8000000000004001 0.4999999999978998 Si
atom_frac 0.1000000000010999 0.9000000000004000 0.5999999999978998 Si
atom_frac 0.1000000000010999 0.0000000000003999 0.6999999999978997 Si
atom_frac 0.1000000000010999 0.1000000000004002 0.7999999999978999 Si
atom_frac 0.3000000000011000 0.3000000000004000 0.9999999999978997 Si
atom_frac 0.3000000000011000 0.4000000000004000 0.0999999999979000 Si
atom_frac 0.3000000000011000 0.5000000000004000 0.1999999999979000 Si
atom_frac 0.3000000000011000 0.6000000000004000 0.2999999999978999 Si
atom_frac 0.3000000000011002 0.7000000000004002 0.3999999999979000 Si
atom_frac 0.3000000000011001 0.8000000000004001 0.4999999999978998 Si
atom_frac 0.3000000000010999 0.9000000000003999 0.5999999999979000 Si
atom_frac 0.3000000000010999 0.0000000000003999 0.6999999999979000 Si
atom_frac 0.3000000000010999 0.1000000000004000 0.7999999999978999 Si
atom_frac 0.3000000000010999 0.2000000000004001 0.8999999999978999 Si
atom_frac 0.4000000000011000 0.3000000000004000 0.0999999999979000 Si
atom_frac 0.4000000000011001 0.4000000000004001 0.1999999999978999 Si
atom_frac 0.4000000000011000 0.5000000000003999 0.2999999999979000 Si
atom_frac 0.4000000000011001 0.6000000000004001 0.3999999999979000 Si
atom_frac 0.4000000000011001 0.7000000000004002 0.4999999999979000 Si
atom_frac 0.4000000000011000 0.8000000000003999 0.5999999999978999 Si
atom_frac 0.4000000000011000 0.9000000000004000 0.6999999999979000 Si
atom_frac 0.4000000000011000 0.0000000000003999 0.7999999999978999 Si
atom_frac 0.4000000000011000 0.1000000000004000 0.8999999999978999 Si
atom_frac 0.4000000000011000 0.2000000000004001 0.9999999999979000 Si
atom_frac 0.5000000000011000 0.3000000000004001 0.1999999999979000 Si
atom_frac 0.5000000000011000 0.4000000000003999 0.2999999999978999 Si
atom_frac 0.5000000000011000 0.5000000000004000 0.3999999999978999 Si
atom_frac 0.5000000000011000 0.6000000000004001 0.4999999999978999 Si
atom_frac 0.5000000000011000 0.7000000000004001 0.5999999999979000 Si
atom_frac 0.5000000000011001 0.8000000000003999 0.6999999999978999 Si
atom_frac 0.5000000000011000 0.9000000000004000 0.7999999999978998 Si
atom_frac 0.5000000000011001 0.0000000000003999 0.8999999999979000 Si
atom_frac 0.5000000000011000 0.1000000000004000 0.9999999999978997 Si
atom_frac 0.5000000000011000 0.2000000000004001 0.0999999999979002 Si
atom_frac 0.6000000000011000 0.3000000000003999 0.2999999999978999 Si
atom_frac 0.6000000000011000 0.4000000000004000 0.3999999999979000 Si
atom_frac 0.6000000000011000 0.5000000000004001 0.4999999999979000 Si
atom_frac 0.6000000000011000 0.6000000000004001 0.5999999999979000 Si
atom_frac 0.6000000000011000 0.7000000000004002 0.6999999999979001 Si
atom_frac 0.6000000000011001 0.8000000000003998 0.7999999999978999 Si
atom_frac 0.6000000000011000 0.9000000000004000 0.8999999999979000 Si
atom_frac 0.6000000000011000 0.0000000000003999 0.9999999999978999 Si
atom_frac 0.6000000000011000 0.1000000000004000 0.0999999999979000 Si
atom_frac 0.6000000000011000 0.2000000000004001 0.1999999999979001 Si
atom_frac 0.7000000000011002 0.3000000000003999 0.3999999999979000 Si
atom_frac 0.7000000000011001 0.4000000000004000 0.4999999999979000 Si
atom_frac 0.7000000000011002 0.5000000000004000 0.5999999999979000 Si
atom_frac 0.7000000000011001 0.6000000000004000 0.6999999999979000 Si
atom_frac 0.7000000000011002 0.7000000000003999 0.7999999999978999 Si
atom_frac 0.7000000000011002 0.8000000000003999 0.8999999999978996 Si
atom_frac 0.7000000000011002 0.9000000000004000 0.9999999999978999 Si
atom_frac 0.7000000000011001 0.0000000000003999 0.0999999999979000 Si
atom_frac 0.7000000000010999 0.1000000000004000 0.1999999999978999 Si
atom_frac 0.7000000000011002 0.2000000000004001 0.2999999999979001 Si
atom_frac 0.8000000000011001 0.3000000000004000 0.4999999999978999 Si
atom_frac 0.8000000000011001 0.4000000000004001 0.5999999999979000 Si
atom_frac 0.8000000000011001 0.5000000000004000 0.6999999999978999 Si
atom_frac 0.8000000000011003 0.6000000000004000 0.7999999999978998 Si
atom_frac 0.8000000000011001 0.7000000000004002 0.8999999999978999 Si
atom_frac 0.8000000000011003 0.8000000000003999 0.9999999999978997 Si
atom_frac 0.8000000000011001 0.9000000000004000 0.0999999999979000 Si
atom_frac 0.8000000000011001 0.0000000000003999 0.1999999999979001 Si
atom_frac 0.8000000000011001 0.1000000000004000 0.2999999999978999 Si
atom_frac 0.8000000000011003 0.2000000000004001 0.3999999999979003 Si
atom_frac 0.9000000000010998 0.3000000000004001 0.5999999999979000 Si
atom_frac 0.9000000000010998 0.4000000000004000 0.6999999999979000 Si
atom_frac 0.9000000000011000 0.5000000000004000 0.7999999999978999 Si
atom_frac 0.9000000000011000 0.6000000000004000 0.8999999999979000 Si
atom_frac 0.9000000000010998 0.7000000000004001 0.9999999999978999 Si
atom_frac 0.9000000000010999 0.8000000000003999 0.0999999999979000 Si
atom_frac 0.9000000000010998 0.9000000000004000 0.1999999999979001 Si
atom_frac 0.9000000000011000 0.0000000000003999 0.2999999999978999 Si
atom_frac 0.9000000000010998 0.1000000000004000 0.3999999999979000 Si
atom_frac 0.9000000000011000 0.2000000000004001 0.4999999999979001 Si
atom_frac 0.0000000000011000 0.3000000000004001 0.6999999999979000 Si
atom_frac 0.0000000000011000 0.4000000000004000 0.7999999999978999 Si
atom_frac 0.0000000000011000 0.5000000000004000 0.8999999999978999 Si
atom_frac 0.0000000000011000 0.6000000000003999 0.9999999999978997 Si
atom_frac 0.0000000000011000 0.7000000000004001 0.0999999999979000 Si
atom_frac 0.0000000000011000 0.8000000000003999 0.1999999999978999 Si
atom_frac 0.0000000000011000 0.9000000000004000 0.2999999999978999 Si
atom_frac 0.0000000000011000 0.0000000000003999 0.3999999999979000 Si
atom_frac 0.0000000000011000 0.1000000000004000 0.4999999999978999 Si
atom_frac 0.0000000000011000 0.2000000000004001 0.5999999999979001 Si
atom_frac 0.1000000000011001 0.3000000000004000 0.7999999999979001 Si
atom_frac 0.1000000000011001 0.4000000000003999 0.8999999999979000 Si
atom_frac 0.1000000000011001 0.5000000000004000 0.9999999999979000 Si
atom_frac 0.1000000000011001 0.6000000000004001 0.0999999999979000 Si
atom_frac 0.1000000000011001 0.7000000000004002 0.1999999999979001 Si
atom_frac 0.1000000000011001 0.8000000000003999 0.2999999999978999 Si
atom_frac 0.1000000000011001 0.9000000000004003 0.3999999999979000 Si
atom_frac 0.1000000000011001 0.0000000000003999 0.4999999999978999 Si
atom_frac 0.1000000000011001 0.1000000000004000 0.5999999999979000 Si
atom_frac 0.1000000000011001 0.2000000000004001 0.6999999999979001 Si
atom_frac 0.2000000000011000 0.3000000000003999 0.8999999999978996 Si
atom_frac 0.2000000000010998 0.4000000000004000 0.9999999999978997 Si
atom_frac 0.2000000000010997 0.5000000000004000 0.0999999999978998 Si
atom_frac 0.2000000000010997 0.6000000000004000 0.1999999999978998 Si
atom_frac 0.2000000000010997 0.7000000000004001 0.2999999999978999 Si
atom_frac 0.2000000000010997 0.8000000000004001 0.3999999999978998 Si
atom_frac 0.2000000000010997 0.9000000000004001 0.4999999999978999 Si
atom_frac 0.2000000000010997 0.0000000000003999 0.5999999999978999 Si
atom_frac 0.2000000000010998 0.1000000000004000 0.6999999999978999 Si
atom_frac 0.2000000000010998 0.2000000000004001 0.7999999999978998 Si
atom_frac 0.4000000000011000 0.4000000000004000 0.9999999999978999 Si
atom_frac 0.4000000000011000 0.5000000000003999 0.0999999999979000 Si
atom_frac 0.4000000000011000 0.6000000000004000 0.1999999999979000 Si
atom_frac 0.4000000000011000 0.7000000000003999 0.2999999999979000 Si
atom_frac 0.4000000000011001 0.8000000000004001 0.3999999999978999 Si
atom_frac 0.4000000000011000 0.9000000000003999 0.4999999999978999 Si
atom_frac 0.4000000000011000 0.0000000000003999 0.5999999999979000 Si
atom_frac 0.4000000000011000 0.1000000000004000 0.6999999999979000 Si
atom_frac 0.4000000000011000 0.2000000000003999 0.7999999999978999 Si
atom_frac 0.4000000000011000 0.3000000000004002 0.8999999999979000 Si
atom_frac 0.5000000000011000 0.4000000000004000 0.0999999999979000 Si
atom_frac 0.5000000000011000 0.5000000000003999 0.1999999999979000 Si
atom_frac 0.5000000000011000 0.6000000000004000 0.2999999999978999 Si
atom_frac 0.5000000000011001 0.7000000000004002 0.3999999999979000 Si
atom_frac 0.5000000000010999 0.8000000000004001 0.4999999999979000 Si
atom_frac 0.5000000000010999 0.9000000000003998 0.5999999999978999 Si
atom_frac 0.5000000000010999 0.0000000000003999 0.6999999999979000 Si
atom_frac 0.5000000000010999 0.1000000000004000 0.7999999999978999 Si
atom_frac 0.5000000000010999 0.2000000000003999 0.8999999999978999 Si
atom_frac 0.5000000000010999 0.3000000000004002 0.9999999999979001 Si
atom_frac 0.6000000000011000 0.4000000000004000 0.1999999999979000 Si
atom_frac 0.6000000000011000 0.5000000000003998 0.2999999999979000 Si