#=======================================================
# FHI-aims file: ./geometry.in
# Created using the Atomic Simulation Environment (ASE)
# Tue Jun 10 14:56:51 2025
#=======================================================
lattice_vector 5.4088325884509993 0.0000000000639995 0.0000000001369997 
lattice_vector 0.0000000000629998 5.4088325742939993 0.0000000001030003 
lattice_vector 0.0000000001370002 0.0000000001020002 5.4088325742309999 
atom_frac -0.0188960190885176 -0.0184841750138099 0.0206500509138401 Si
atom_frac 0.0186987651755546 0.4901125321775067 0.4998420023258985 Si
atom_frac 0.5027585271330821 0.0240513187046232 0.5113499266196843 Si
atom_frac 0.4792907052024176 0.4962862387951941 -0.0194732335036242 Si
atom_frac 0.2654821605926894 0.2401521753416981 0.2277423658894869 Si
atom_frac 0.2389476056096933 0.7773837888746442 0.7427686956955866 Si
atom_frac 0.7805812682020360 0.2623218209885417 0.7543709225724741 Si
atom_frac 0.7331369871276587 0.7281763001535441 0.2627492694883745 Si
