#=======================================================
# FHI-aims file: ./geometry.in
# Created using the Atomic Simulation Environment (ASE)
# Tue Jun 10 15:26:09 2025
#=======================================================
lattice_vector 5.4088325884509993 0.0000000000639995 0.0000000001369997 
lattice_vector 0.0000000000629998 5.4088325742939993 0.0000000001030003 
lattice_vector 0.0000000001370002 0.0000000001020002 5.4088325742309999 
atom_frac -0.0018560408357956 -0.0059581147183209 -0.0043127976383748 Si
atom_frac -0.0037959872452719 0.5249302994280856 0.5320277832466525 Si
atom_frac 0.4847188739401342 0.0254869128555144 0.4647040202540682 Si
atom_frac 0.5088061198453256 0.4737390778854007 0.0211994863816695 Si
atom_frac 0.2042279201516824 0.2465454072836672 0.2504000205330266 Si
atom_frac 0.2836103978340632 0.7485968142316741 0.7498231439882227 Si
atom_frac 0.7494517621019181 0.2415994338125747 0.7440538377781210 Si
atom_frac 0.7748369541735768 0.7450601691719901 0.2421045054537818 Si
