#=======================================================
# FHI-aims file: geometry.in
# Created using the Atomic Simulation Environment (ASE)
# Tue Jun 10 14:47:04 2025
#=======================================================
lattice_vector 5.4088325884509993 0.0000000000639995 0.0000000001369997 
lattice_vector 0.0000000000629998 5.4088325742939993 0.0000000001030003 
lattice_vector 0.0000000001370002 0.0000000001020002 5.4088325742309999 
atom -0.1003946285553425 -0.0487872672972709 0.0147135463943101 Si
atom -0.0064945592050131 2.7165276666670306 2.6237466797537294 Si
atom 2.6684665459443764 0.0992794656536159 2.6404504200565477 Si
atom 2.7446253715603945 2.7498924930303077 0.0971945797107015 Si
atom 1.3317792126703456 1.2377491723420175 1.2107874478019851 Si
atom 1.3884608255940838 4.0245958571572258 4.0367077357793146 Si
atom 4.0518651773041139 1.4264521042874816 4.0933450229599835 Si
atom 4.1481898203737435 4.0207882312559304 1.5095522909552330 Si
