#=======================================================
# FHI-aims file: ./geometry.in
# Created using the Atomic Simulation Environment (ASE)
# Tue Jun 10 14:44:08 2025
#=======================================================
lattice_vector 5.4088325884509993 0.0000000000639995 0.0000000001369997 
lattice_vector 0.0000000000629998 5.4088325742939993 0.0000000001030003 
lattice_vector 0.0000000001370002 0.0000000001020002 5.4088325742309999 
atom_frac 0.0123086560464452 0.0004541564485019 0.0013857159605547 Si
atom_frac -0.0092261337144792 0.4997442214539807 0.4996829915305182 Si
atom_frac 0.4941450137856558 0.0060610370321119 0.5053980821599260 Si
atom_frac 0.5200471970908757 0.5017292314355376 0.0051823630861754 Si
atom_frac 0.2337286023050909 0.2569218803356166 0.2553437425823439 Si
atom_frac 0.2452009569861278 0.7357923821199397 0.7424926080774421 Si
atom_frac 0.7530966129139356 0.2436150219108165 0.7391082174418075 Si
atom_frac 0.7506990946323771 0.7556820692429089 0.2514062791619406 Si
