#=======================================================
# FHI-aims file: geometry.in
# Created using the Atomic Simulation Environment (ASE)
# Tue Jun 10 15:03:14 2025
#=======================================================
lattice_vector 5.4088325884509993 0.0000000000639995 0.0000000001369997 
lattice_vector 0.0000000000629998 5.4088325742939993 0.0000000001030003 
lattice_vector 0.0000000001370002 0.0000000001020002 5.4088325742309999 
atom 0.0757249547052333 0.0218031357605847 -0.0639372305184713 Si
atom -0.0291571658119812 2.7270376917781478 2.7226747887495373 Si
atom 2.7386855310585463 0.0354517942891008 2.7791623424091796 Si
atom 2.6789671521072047 2.6969513324722025 -0.1053062462310295 Si
atom 1.3735709622476098 1.3590970991904947 1.4674339746294671 Si
atom 1.3641917265810788 3.9835311826552480 3.9607737107259338 Si
atom 4.0495152648229080 1.3075484496119159 4.0480219106215980 Si
atom 3.9749993403854438 4.0950770374333780 1.4176744730255193 Si
