#=======================================================
# FHI-aims file: geometry.in
# Created using the Atomic Simulation Environment (ASE)
# Tue Jun 10 14:43:09 2025
#=======================================================
lattice_vector 5.4088325884509993 0.0000000000639995 0.0000000001369997 
lattice_vector 0.0000000000629998 5.4088325742939993 0.0000000001030003 
lattice_vector 0.0000000001370002 0.0000000001020002 5.4088325742309999 
atom -0.0018620520142771 0.0006715417488790 0.0315178979075057 Si
atom 0.0062425154601754 2.7270271622009283 2.6300535730817969 Si
atom 2.6080478977671944 -0.0732596710808421 2.7960207144414753 Si
atom 2.6544400949735887 2.7665660677877901 -0.0372098505616626 Si
atom 1.3940422942716386 1.3234367577019159 1.4190422485759355 Si
atom 1.3220729597556982 4.0140865673689605 4.0888410207648747 Si
atom 4.1353950478137076 1.4077193910620898 4.0167646717350145 Si
atom 4.1081190075637135 4.0602499065581696 1.2814674474669345 Si
