#=======================================================
# FHI-aims file: ./geometry.in
# Created using the Atomic Simulation Environment (ASE)
# Tue Jun 10 14:54:39 2025
#=======================================================
lattice_vector 5.4088325884509993 0.0000000000639995 0.0000000001369997 
lattice_vector 0.0000000000629998 5.4088325742939993 0.0000000001030003 
lattice_vector 0.0000000001370002 0.0000000001020002 5.4088325742309999 
atom_frac 0.0169810707986459 -0.0151507987815921 0.0174840184406357 Si
atom_frac -0.0034443515053664 0.4925204418663559 0.4880216798062439 Si
atom_frac 0.4833955424875244 0.0170386338093066 0.5150524196219822 Si
atom_frac 0.5044165862549853 0.5222678389590710 -0.0344011161933973 Si
atom_frac 0.2641312472276379 0.2505654682083404 0.2560167655780063 Si
atom_frac 0.2346765545404089 0.7455081452533944 0.7270089452997109 Si
atom_frac 0.7625023874606387 0.2407073797739834 0.7721333709790216 Si
atom_frac 0.7373409627397418 0.7465428908684379 0.2586839164689324 Si
