#=======================================================
# FHI-aims file: ./geometry.in
# Created using the Atomic Simulation Environment (ASE)
# Tue Jun 10 14:34:10 2025
#=======================================================
lattice_vector 5.4088325884509993 0.0000000000639995 0.0000000001369997 
lattice_vector 0.0000000000629998 5.4088325742939993 0.0000000001030003 
lattice_vector 0.0000000001370002 0.0000000001020002 5.4088325742309999 
atom_frac -0.0131598241812598 -0.0117258480687374 -0.0172746135977241 Si
atom_frac 0.0021568402413442 0.5018324174659187 0.5175339269514185 Si
atom_frac 0.5098725372818541 0.0152918202937468 0.4828661023886306 Si
atom_frac 0.4954144532980551 0.4930292912227969 0.0105721719298040 Si
atom_frac 0.2332170244082935 0.2420616271835595 0.2631732136697185 Si
atom_frac 0.2769533441635916 0.7515281188115327 0.7401556705663126 Si
atom_frac 0.7364295832610861 0.2645100229678783 0.7548980452684714 Si
atom_frac 0.7591160415089774 0.7434725501259705 0.2480754828208009 Si
