#=======================================================
# FHI-aims file: ./geometry.in
# Created using the Atomic Simulation Environment (ASE)
# Tue Jun 10 15:08:18 2025
#=======================================================
lattice_vector 5.4088325884509993 0.0000000000639995 0.0000000001369997 
lattice_vector 0.0000000000629998 5.4088325742939993 0.0000000001030003 
lattice_vector 0.0000000001370002 0.0000000001020002 5.4088325742309999 
atom_frac -0.0158993317543555 -0.0068926007561428 -0.0041460551944305 Si
atom_frac 0.0205371425390994 0.4904570322281961 0.4990970811434945 Si
atom_frac 0.4875306629546021 0.0304289592449700 0.5088555104861311 Si
atom_frac 0.5074222649934473 0.4874634281105566 0.0128349128010795 Si
atom_frac 0.2222176389929865 0.2538076068009777 0.2432010417898711 Si
atom_frac 0.2740206958000093 0.7435796010090190 0.7422631718542966 Si
atom_frac 0.7912986451325842 0.2484282769211970 0.7407576695564334 Si
atom_frac 0.7128722813427595 0.7527276964381412 0.2571366675648082 Si
