#=======================================================
# FHI-aims file: ./geometry.in
# Created using the Atomic Simulation Environment (ASE)
# Tue Jun 10 14:39:46 2025
#=======================================================
lattice_vector 5.4088325884509993 0.0000000000639995 0.0000000001369997 
lattice_vector 0.0000000000629998 5.4088325742939993 0.0000000001030003 
lattice_vector 0.0000000001370002 0.0000000001020002 5.4088325742309999 
atom_frac 0.0117739284669640 0.0144919555243012 0.0105800578746799 Si
atom_frac -0.0113440481332946 0.4932736321086130 0.4983584024443876 Si
atom_frac 0.4868364844901396 -0.0106338757383009 0.5060510950287939 Si
atom_frac 0.5076546211614503 0.5067602318521902 -0.0207930629101050 Si
atom_frac 0.2547050564746547 0.2610773535631003 0.2587528675714541 Si
atom_frac 0.2445681202520179 0.7666813934802280 0.7568090619644524 Si
atom_frac 0.7581685134544881 0.2211502754703335 0.7385673882836427 Si
atom_frac 0.7476373238209083 0.7471990337298383 0.2516741897434084 Si
