#=======================================================
# FHI-aims file: geometry.in.primitive
# Created using the Atomic Simulation Environment (ASE)
# Tue May 20 19:25:36 2025

# Additional information:
#  Number of atoms:     2
#=======================================================
lattice_vector 0.0000000000000000 2.7130337629099999 2.7130337629099999 
lattice_vector 2.7130337629099999 0.0000000000000000 2.7130337629099999 
lattice_vector 2.7130337629099999 2.7130337629099999 0.0000000000000000 
atom 0.0000000000000000 0.0000000000000000 0.0000000000000000 Si
atom 1.3565168814549999 1.3565168814549999 1.3565168814549999 Si
