#=======================================================
# FHI-aims file: geometry.in.supercell
# Created using the Atomic Simulation Environment (ASE)
# Tue Jun 10 17:55:12 2025

# Additional information:
#  Number of atoms:     8
#=======================================================
lattice_vector 5.4260675258199997 -0.0000000000000000 -0.0000000000000000 
lattice_vector -0.0000000000000000 5.4260675258199997 0.0000000000000000 
lattice_vector 0.0000000000000000 0.0000000000000000 5.4260675258199997 
atom 0.0000000000000000 0.0000000000000000 0.0000000000000000 Si
atom 0.0000000000000000 2.7130337629099999 2.7130337629099999 Si
atom 2.7130337629099999 0.0000000000000000 2.7130337629099999 Si
atom 2.7130337629099999 2.7130337629099999 0.0000000000000000 Si
atom 1.3565168814549999 1.3565168814549999 1.3565168814549999 Si
atom 1.3565168814549999 4.0695506443650000 4.0695506443650000 Si
atom 4.0695506443650000 1.3565168814549999 4.0695506443650000 Si
atom 4.0695506443650000 4.0695506443650000 1.3565168814549999 Si
