#=======================================================
# FHI-aims file: ./geometry.in
# Created using the Atomic Simulation Environment (ASE)
# Tue Jun 10 15:23:48 2025
#=======================================================
lattice_vector 5.4088325884509993 0.0000000000639995 0.0000000001369997 
lattice_vector 0.0000000000629998 5.4088325742939993 0.0000000001030003 
lattice_vector 0.0000000001370002 0.0000000001020002 5.4088325742309999 
atom_frac 0.0212700722219029 -0.0589560447368912 0.0343342227455254 Si
atom_frac -0.0606978330014508 0.5082373577447027 0.5197841504840582 Si
atom_frac 0.5494997120067845 0.0290687342916390 0.4796548440162221 Si
atom_frac 0.4790390716433705 0.5091539403367554 -0.0160990202533401 Si
atom_frac 0.2396433306883254 0.2648712563725809 0.2621496494704484 Si
atom_frac 0.2709663529991765 0.7700975456326307 0.7187424244363526 Si
atom_frac 0.7737008437395059 0.2297790737882767 0.7841406170422128 Si
atom_frac 0.7265784496693566 0.7477481366005039 0.2172931120533889 Si
