#=======================================================
# FHI-aims file: geometry.in
# Created using the Atomic Simulation Environment (ASE)
# Tue Jun 10 15:00:54 2025
#=======================================================
lattice_vector 5.4088325884509993 0.0000000000639995 0.0000000001369997 
lattice_vector 0.0000000000629998 5.4088325742939993 0.0000000001030003 
lattice_vector 0.0000000001370002 0.0000000001020002 5.4088325742309999 
atom -0.0915615368128980 -0.0650202090661186 -0.2049325236828834 Si
atom 0.0216266404242634 2.6636546700859278 2.8194832197656883 Si
atom 2.8643491238834060 0.0546929193705999 2.5739251428624303 Si
atom 2.5322852734314267 2.6094552941683915 0.1892289146996910 Si
atom 1.2576142212136499 1.2035480145636308 1.4466688230780629 Si
atom 1.6155044806414876 4.1661394740842415 3.9499936404773650 Si
atom 3.9271396591383758 1.5559663455284516 4.1654768289750415 Si
atom 4.0995399037871900 4.0380612150103028 1.2866536772078165 Si
