#=======================================================
# FHI-aims file: geometry.in
# Created using the Atomic Simulation Environment (ASE)
# Tue Jun 10 15:03:47 2025
#=======================================================
lattice_vector 5.4088325884509993 0.0000000000639995 0.0000000001369997 
lattice_vector 0.0000000000629998 5.4088325742939993 0.0000000001030003 
lattice_vector 0.0000000001370002 0.0000000001020002 5.4088325742309999 
atom 0.1857019067096239 0.0385773935246901 0.0327226847606176 Si
atom -0.1357787237036353 2.5549985570688269 2.7871416449465434 Si
atom 2.5746784788773325 -0.1053901494741543 2.5714853899663916 Si
atom 2.8733632609512743 2.8651981462899454 -0.0433835703704207 Si
atom 1.4441563806763056 1.6852527241121713 1.2753530530893498 Si
atom 1.2849926843893462 3.8592964473117695 4.0159954725084424 Si
atom 3.8377272281779291 1.2273559831035237 4.1761853138488192 Si
atom 4.1616565500895639 4.1012086215876549 1.4109977346622118 Si
