#=======================================================
# FHI-aims file: ./geometry.in
# Created using the Atomic Simulation Environment (ASE)
# Tue Jun 10 17:54:08 2025
#=======================================================
lattice_vector 0.0000000000000000 2.6587730876517996 2.6587730876517996 
lattice_vector 2.6587730876517996 0.0000000000000000 2.6587730876517996 
lattice_vector 2.6587730876517996 2.6587730876517996 0.0000000000000000 
atom_frac 0.0000000000000000 0.0000000000000000 -0.0000000000000000 Si
atom_frac 0.2500000000000000 0.2500000000000000 0.2500000000000000 Si
