#=======================================================
# FHI-aims file: geometry.in
# Created using the Atomic Simulation Environment (ASE)
# Tue Jun 10 14:38:29 2025
#=======================================================
lattice_vector 5.4088325884509993 0.0000000000639995 0.0000000001369997 
lattice_vector 0.0000000000629998 5.4088325742939993 0.0000000001030003 
lattice_vector 0.0000000001370002 0.0000000001020002 5.4088325742309999 
atom -0.0463248151719873 -0.0122599018515524 0.0356931887891725 Si
atom 0.0595756884072072 2.7383511837956354 2.6401334558934657 Si
atom 2.7132924617740768 0.0264660984121233 2.7315281889536536 Si
atom 2.6128883533866900 2.7275808957272574 -0.0346004244166230 Si
atom 1.3932449759691652 1.3228718109661206 1.3469053856678461 Si
atom 1.3499914889038975 4.0974660297201755 4.0189103793352894 Si
atom 4.0656360254783692 1.3611699392547125 4.0774744273735122 Si
atom 4.0781935870262673 3.9648516671692473 1.4104531218161258 Si
