#=======================================================
# FHI-aims file: geometry.in
# Created using the Atomic Simulation Environment (ASE)
# Tue Jun 10 14:21:44 2025
#=======================================================
lattice_vector 5.4088325884509993 0.0000000000639995 0.0000000001369997 
lattice_vector 0.0000000000629998 5.4088325742939993 0.0000000001030003 
lattice_vector 0.0000000001370002 0.0000000001020002 5.4088325742309999 
atom -0.0482647204169196 0.0564730069060762 0.0950988857749320 Si
atom 0.0291807656950875 2.6853263024797340 2.6056274935980768 Si
atom 2.7438349332930527 -0.0452350120714644 2.7236663186240717 Si
atom 2.6647767623022256 2.7441564481989009 0.0114496506033678 Si
atom 1.4509175475529326 1.3357380792281157 1.4142668312570550 Si
atom 1.2488620293897954 4.0409476159013362 4.0088952771137425 Si
atom 4.0494739302128178 1.3704224079548908 4.0224578136807558 Si
atom 4.0877165178819181 4.0386688747007105 1.3450354527634238 Si
