#=======================================================
# FHI-aims file: geometry.in
# Created using the Atomic Simulation Environment (ASE)
# Tue Jun 10 14:42:57 2025
#=======================================================
lattice_vector 5.4088325884509993 0.0000000000639995 0.0000000001369997 
lattice_vector 0.0000000000629998 5.4088325742939993 0.0000000001030003 
lattice_vector 0.0000000001370002 0.0000000001020002 5.4088325742309999 
atom 0.0455947877136719 -0.0551852337488340 -0.1157187423987736 Si
atom -0.1283880119432358 2.7402262607274541 2.6697084520272516 Si
atom 2.7061267729902898 0.1053764940991721 2.7757244390663236 Si
atom 2.7723480437979662 2.6320272230766797 0.0535139612463543 Si
atom 1.2635579513968300 1.3578319491875586 1.3560068864405255 Si
atom 1.3990330766361545 3.9478545337565567 4.0331047530979731 Si
atom 4.1405101374982616 1.2890786047447016 4.1685370169733460 Si
atom 4.0277150078262789 4.2092878914975920 1.2856209569524000 Si
