#=======================================================
# FHI-aims file: geometry.in
# Created using the Atomic Simulation Environment (ASE)
# Tue Jun 10 15:17:29 2025
#=======================================================
lattice_vector 5.4088325884509993 0.0000000000639995 0.0000000001369997 
lattice_vector 0.0000000000629998 5.4088325742939993 0.0000000001030003 
lattice_vector 0.0000000001370002 0.0000000001020002 5.4088325742309999 
atom -0.0694065251956065 0.0793958795565461 0.1845848928744329 Si
atom 0.0586230787559181 2.5504937820511451 2.6929994876252961 Si
atom 2.9464984523822655 -0.0905666208181104 2.6845217847952707 Si
atom 2.4666779313888432 2.8434479152826628 -0.1843371866478754 Si
atom 1.4877143801673420 1.3157390347861380 1.3953363247169979 Si
atom 1.1686961025317832 4.2756367940960223 3.9549525505982581 Si
atom 4.0540587541233464 1.4585084182092043 4.2226785870160066 Si
atom 4.1136355917729261 3.7938425202837625 1.2757612824296987 Si
