#=======================================================
# FHI-aims file: ./geometry.in
# Created using the Atomic Simulation Environment (ASE)
# Tue Jun 10 14:36:46 2025
#=======================================================
lattice_vector 5.4088325884509993 0.0000000000639995 0.0000000001369997 
lattice_vector 0.0000000000629998 5.4088325742939993 0.0000000001030003 
lattice_vector 0.0000000001370002 0.0000000001020002 5.4088325742309999 
atom_frac 0.0054554823774953 -0.0034443696397964 -0.0086013575140356 Si
atom_frac -0.0080305107383814 0.5014350982707646 0.4979919575469347 Si
atom_frac 0.5022962218967029 -0.0029087925797469 0.4987733918864490 Si
atom_frac 0.5157308291024768 0.5033802619889640 0.0013734571995102 Si
atom_frac 0.2346913668625394 0.2529060871975886 0.2644676066232868 Si
atom_frac 0.2562222286566866 0.7389255424589621 0.7451915749948910 Si
atom_frac 0.7512550613786161 0.2551565855050135 0.7456465139991137 Si
atom_frac 0.7423793205035430 0.7545495868024125 0.2551568552640104 Si
