#=======================================================
# FHI-aims file: ./geometry.in
# Created using the Atomic Simulation Environment (ASE)
# Tue Jun 10 15:09:09 2025
#=======================================================
lattice_vector 5.4088325884509993 0.0000000000639995 0.0000000001369997 
lattice_vector 0.0000000000629998 5.4088325742939993 0.0000000001030003 
lattice_vector 0.0000000001370002 0.0000000001020002 5.4088325742309999 
atom_frac -0.0237800727679915 -0.0012503397525196 0.0029401093853844 Si
atom_frac 0.0286380637152805 0.5260610711399860 0.5217987313820415 Si
atom_frac 0.4893988124099708 0.0014134682055108 0.5024444418701274 Si
atom_frac 0.4924741302221820 0.4775690834903081 -0.0238388988761433 Si
atom_frac 0.2459827590391096 0.2386214673207374 0.2328886039910555 Si
atom_frac 0.2583531984867821 0.7880931013771714 0.7450032991269913 Si
atom_frac 0.7796186373893227 0.2604000997895858 0.7515379440581016 Si
atom_frac 0.7293144714715951 0.7090920484201219 0.2672257690641167 Si
