#=======================================================
# FHI-aims file: ./geometry.in
# Created using the Atomic Simulation Environment (ASE)
# Tue Jun 10 15:19:47 2025
#=======================================================
lattice_vector 5.4088325884509993 0.0000000000639995 0.0000000001369997 
lattice_vector 0.0000000000629998 5.4088325742939993 0.0000000001030003 
lattice_vector 0.0000000001370002 0.0000000001020002 5.4088325742309999 
atom_frac 0.0111311499134452 0.0210033562445976 -0.0149824691908124 Si
atom_frac -0.0035820442667361 0.4877105232463984 0.5266903428995621 Si
atom_frac 0.5047756489744147 -0.0206743300410299 0.4955724200299734 Si
atom_frac 0.4842756177474585 0.5300562048970491 0.0068891740321473 Si
atom_frac 0.2479314473262904 0.2719635483323140 0.2697252248502953 Si
atom_frac 0.2527405091718153 0.7516458352979175 0.7187792170488905 Si
atom_frac 0.7132753946634360 0.2227912597628544 0.7692239519877075 Si
atom_frac 0.7894522764571710 0.7355036022102404 0.2281021383380008 Si
