#=======================================================
# FHI-aims file: geometry.in.supercell.0300K.005
# Created using the Atomic Simulation Environment (ASE)
# Tue Jun 10 14:20:51 2025

# Additional information:
#  created from force constants
#  T = 300.0 K
#  quantum:             True
#  deterministic:       False
#  plus_minus:          False
#  gauge_eigenvectors:  False
#  Random seed:         35862534
#  Sample number:       6
#  Harmonic E_pot:        0.516eV (499.39K)
#=======================================================
lattice_vector 5.4088325884509993 0.0000000000639995 0.0000000001369997 
lattice_vector 0.0000000000629998 5.4088325742939993 0.0000000001030003 
lattice_vector 0.0000000001370002 0.0000000001020002 5.4088325742309999 
atom -0.0489126928899526 0.1038866676798056 0.0592243892249734 Si
    velocity 0.4037505175843472 -0.0762762432876477 -1.2058923779375803
atom -0.0306503907065696 2.5622680819143007 2.6491063035190567 Si
    velocity 8.3211561473762803 1.8451461413975569 -2.6139477537885933
atom 2.7378915343269909 -0.0187772952306215 2.7443489585480245 Si
    velocity -0.4658563020099583 0.4854516947728907 0.7559056432596899
atom 2.7309776166043696 2.7967987635175171 -0.0021324859319062 Si
    velocity 0.7835138061320998 -1.5170038954988820 0.7469238370480480
atom 1.5495708269094572 1.3716725130344090 1.2509044488609873 Si
    velocity -1.5104948417378401 -2.4667419081834989 4.8374514344948194
atom 1.1709635049683407 3.9067400179104190 4.0733090618856291 Si
    velocity -2.0106401691864937 3.8337897470345852 0.2559647145443097
atom 3.9631564838630391 1.3844070124887715 4.0560270842461108 Si
    velocity -7.6555766394373759 -1.1063993036289665 0.5795406534905270
atom 4.1535008828383724 4.1195019619761339 1.3957099630660328 Si
    velocity 2.1341474812789381 -0.9979662326060377 -3.3559461511112203
