#=======================================================
# FHI-aims file: geometry.in.supercell.0300K.009
# Created using the Atomic Simulation Environment (ASE)
# Tue Jun 10 14:20:51 2025

# Additional information:
#  created from force constants
#  T = 300.0 K
#  quantum:             True
#  deterministic:       False
#  plus_minus:          False
#  gauge_eigenvectors:  False
#  Random seed:         35862534
#  Sample number:       10
#  Harmonic E_pot:        0.315eV (304.42K)
#=======================================================
lattice_vector 5.4088325884509993 0.0000000000639995 0.0000000001369997 
lattice_vector 0.0000000000629998 5.4088325742939993 0.0000000001030003 
lattice_vector 0.0000000001370002 0.0000000001020002 5.4088325742309999 
atom -0.0407685451168345 -0.1188821782940399 0.1253558706280580 Si
    velocity -1.2432970518189410 0.0460922008663636 0.9816671997692276
atom 0.0429696176333543 2.7011654955150233 2.7072604611281772 Si
    velocity 4.9194034438901060 3.3094598990965745 2.8563696031486243
atom 2.7821947581155890 0.1407552562426133 2.7421829286092132 Si
    velocity 1.3537947781026494 -0.0513523615689211 2.4054362693083813
atom 2.6673975239146870 2.6856077151497533 -0.1271402507086101 Si
    velocity 4.8262439015834291 4.0423389930007030 -3.6266838965465009
atom 1.3071425998910302 1.3517604689186418 1.2658037702456877 Si
    velocity -0.1937967632698538 -0.8788446415286267 0.5124420540098340
atom 1.3611827128610663 4.1662002664483211 4.0184162999379778 Si
    velocity -7.2963259288205053 -0.9245506530887317 -2.4288991106175994
atom 4.1453316147065289 1.4192100563035706 4.0575669968147841 Si
    velocity -4.5780462476177863 -4.2171596638990350 -0.0187673768842409
atom 3.9610474840643857 3.8806806431014511 1.4370516467665722 Si
    velocity 2.2120238679509021 -1.3259837728783259 -0.6815647421877263
