#=======================================================
# FHI-aims file: geometry.in.supercell.0300K.008
# Created using the Atomic Simulation Environment (ASE)
# Tue Jun 10 14:20:51 2025

# Additional information:
#  created from force constants
#  T = 300.0 K
#  quantum:             True
#  deterministic:       False
#  plus_minus:          False
#  gauge_eigenvectors:  False
#  Random seed:         35862534
#  Sample number:       9
#  Harmonic E_pot:        0.414eV (400.06K)
#=======================================================
lattice_vector 5.4088325884509993 0.0000000000639995 0.0000000001369997 
lattice_vector 0.0000000000629998 5.4088325742939993 0.0000000001030003 
lattice_vector 0.0000000001370002 0.0000000001020002 5.4088325742309999 
atom -0.0018620520142771 0.0006715417488790 0.0315178979075057 Si
    velocity 1.4810175831832288 -2.3570577700283950 2.5484151091744933
atom 0.0062425154601754 2.7270271622009283 2.6300535730817969 Si
    velocity -0.5107578859062577 6.3936386287988753 -6.3156362758014799
atom 2.6080478977671944 -0.0732596710808421 2.7960207144414753 Si
    velocity 1.6393056446280045 2.2870409209627751 0.4361517101735474
atom 2.6544400949735887 2.7665660677877901 -0.0372098505616626 Si
    velocity -2.1567983728933937 -1.8172775227296554 2.6790095634037079
atom 1.3940422942716386 1.3234367577019159 1.4190422485759355 Si
    velocity 2.0201541464831227 -1.6691440919243434 -3.4788735638592625
atom 1.3220729597556982 4.0140865673689605 4.0888410207648747 Si
    velocity 3.0777681316555712 -2.3680105566794194 0.1078763533275911
atom 4.1353950478137076 1.4077193910620898 4.0167646717350145 Si
    velocity -4.5483464941651448 -3.9025996181621712 0.6369522312200028
atom 4.1081190075637135 4.0602499065581696 1.2814674474669345 Si
    velocity -1.0023427529851316 3.4334100097623352 3.3861048723614005
