#=======================================================
# FHI-aims file: geometry.in.supercell.0300K.001
# Created using the Atomic Simulation Environment (ASE)
# Tue Jun 10 14:20:51 2025

# Additional information:
#  created from force constants
#  T = 300.0 K
#  quantum:             True
#  deterministic:       False
#  plus_minus:          False
#  gauge_eigenvectors:  False
#  Random seed:         35862534
#  Sample number:       2
#  Harmonic E_pot:        0.328eV (317.28K)
#=======================================================
lattice_vector 5.4088325884509993 0.0000000000639995 0.0000000001369997 
lattice_vector 0.0000000000629998 5.4088325742939993 0.0000000001030003 
lattice_vector 0.0000000001370002 0.0000000001020002 5.4088325742309999 
atom 0.0455947877136719 -0.0551852337488340 -0.1157187423987736 Si
    velocity 2.0148866919974644 -4.7017594806322540 -2.9878930138357851
atom -0.1283880119432358 2.7402262607274541 2.6697084520272516 Si
    velocity 1.2099544981090293 2.0272824713455306 0.1440353073441130
atom 2.7061267729902898 0.1053764940991721 2.7757244390663236 Si
    velocity -1.7814853154194525 -6.0473030101089904 -2.9262766406742715
atom 2.7723480437979662 2.6320272230766797 0.0535139612463543 Si
    velocity 1.1522323302388180 -1.0447160329848810 -0.0362578797101530
atom 1.2635579513968300 1.3578319491875586 1.3560068864405255 Si
    velocity -4.6493854398108843 2.2747940924834045 -0.0076460161507327
atom 1.3990330766361545 3.9478545337565567 4.0331047530979731 Si
    velocity -1.3350931213158654 -0.0288572266355050 -1.2567228226018314
atom 4.1405101374982616 1.2890786047447016 4.1685370169733460 Si
    velocity 5.5810012730371383 4.4082967935900950 4.4053373259542106
atom 4.0277150078262789 4.2092878914975920 1.2856209569524000 Si
    velocity -2.1921109168362478 3.1122623929426028 2.6654237396744507
