#=======================================================
# FHI-aims file: geometry.in.supercell.0600K.004
# Created using the Atomic Simulation Environment (ASE)
# Tue Jun 10 14:20:54 2025

# Additional information:
#  created from force constants
#  T = 600.0 K
#  quantum:             True
#  deterministic:       False
#  plus_minus:          False
#  gauge_eigenvectors:  False
#  Random seed:         2077075479
#  Sample number:       5
#  Harmonic E_pot:        0.684eV (661.47K)
#=======================================================
lattice_vector 5.4088325884509993 0.0000000000639995 0.0000000001369997 
lattice_vector 0.0000000000629998 5.4088325742939993 0.0000000001030003 
lattice_vector 0.0000000001370002 0.0000000001020002 5.4088325742309999 
atom -0.0384172458003388 0.0095813312456226 0.1273731266023589 Si
    velocity -2.5902890031338783 3.1187979206063412 -2.5989872584582612
atom -0.0027263515906720 2.5013644690352863 2.7695597090653394 Si
    velocity -2.0051439054144762 -0.8453624950302788 -8.1885541634299006
atom 2.6051633429659220 -0.0699498508587931 2.6288975706127946 Si
    velocity 0.8721064816608126 -2.5741471345690932 -4.2120859214953983
atom 2.8028902662990376 2.9163604728522277 -0.1164890797249340 Si
    velocity -4.7447096075321653 1.9241481203568627 6.6483587664705706
atom 1.4094207400601835 1.5187180250906325 1.1645118453674930 Si
    velocity -0.4014009590825512 5.0054345403838942 6.9940188325373347
atom 1.2891161379982334 4.0827047622695858 4.0428970763798837 Si
    velocity 5.6859457286719239 -4.0297741688208610 8.1512277021666311
atom 4.0124418469145855 1.2653343815002118 3.9676322174952157 Si
    velocity 4.0808217401512827 -0.5448818057441546 -2.5063276215755472
atom 4.1486090289965514 4.0023841323859815 1.6421152576280407 Si
    velocity -0.8973304753209488 -2.0542149771827094 -4.2876503362154299
