#=======================================================
# FHI-aims file: geometry.in.supercell.0600K.009
# Created using the Atomic Simulation Environment (ASE)
# Tue Jun 10 14:20:54 2025

# Additional information:
#  created from force constants
#  T = 600.0 K
#  quantum:             True
#  deterministic:       False
#  plus_minus:          False
#  gauge_eigenvectors:  False
#  Random seed:         2077075479
#  Sample number:       10
#  Harmonic E_pot:        0.436eV (421.60K)
#=======================================================
lattice_vector 5.4088325884509993 0.0000000000639995 0.0000000001369997 
lattice_vector 0.0000000000629998 5.4088325742939993 0.0000000001030003 
lattice_vector 0.0000000001370002 0.0000000001020002 5.4088325742309999 
atom 0.1416288204161598 -0.1040480268683994 -0.0109730593484117 Si
    velocity 2.2425869097710289 0.2016651190268749 -6.2020431615463449
atom -0.0658303007475884 2.7728121164810324 2.8209343784375900 Si
    velocity 1.9614402968923221 -4.5995691877812233 2.9297360897153086
atom 2.6732001765347198 0.0551064797702756 2.5435945685454158 Si
    velocity 3.3420232547106274 0.3815810494837057 2.0734698030002692
atom 2.7078114256148593 2.7195454327195443 0.0922101090114131 Si
    velocity -4.5757563501066603 -3.9841555680895069 -2.6710133612668234
atom 1.2006374613842321 1.3337724169764222 1.3730076718206283 Si
    velocity -3.3892233404754504 -1.2721760812310672 6.2342371445354745
atom 1.4618325802855991 4.1275020543674090 4.0301543063566516 Si
    velocity -0.0893404041721487 -4.0829048392662992 -0.4775307173187109
atom 3.9867971358122500 1.2827224406017661 4.0954235024170753 Si
    velocity 3.8276405904222788 13.4217339585279287 1.6209289188122786
atom 4.1204204667591497 4.0390848092333238 1.2821462461586188 Si
    velocity -3.3193709570419965 -0.0661744506704156 -3.5077847159314510
