#=======================================================
# FHI-aims file: geometry.in.supercell.0600K.007
# Created using the Atomic Simulation Environment (ASE)
# Tue Jun 10 14:20:54 2025

# Additional information:
#  created from force constants
#  T = 600.0 K
#  quantum:             True
#  deterministic:       False
#  plus_minus:          False
#  gauge_eigenvectors:  False
#  Random seed:         2077075479
#  Sample number:       8
#  Harmonic E_pot:        0.406eV (392.26K)
#=======================================================
lattice_vector 5.4088325884509993 0.0000000000639995 0.0000000001369997 
lattice_vector 0.0000000000629998 5.4088325742939993 0.0000000001030003 
lattice_vector 0.0000000001370002 0.0000000001020002 5.4088325742309999 
atom -0.0256736574781644 0.1525551068717175 0.1368274645231081 Si
    velocity 3.6338552920431937 -4.0195867350650305 6.2369512238169946
atom 0.0301918783747841 2.6382777970360665 2.6721474381678920 Si
    velocity 4.0044308491816007 2.4936730889306764 5.4336976352423427
atom 2.7035677499724486 -0.0677530762306351 2.7929152480410400 Si
    velocity 7.1483740453041253 1.8933058089549386 -4.8545340378324493
atom 2.7168466122163748 2.6792677731026924 -0.1119793133716534 Si
    velocity -2.3086249497535420 9.1070911049344723 -4.5815910733088714
atom 1.5649421800598888 1.2926256336572759 1.3678397179355959 Si
    velocity -2.4713728182573584 -2.3061707290684441 3.9989206646311635
atom 1.1866045401498688 4.0377418889169059 4.0815051927939798 Si
    velocity -2.2759568275517301 -0.3154064801583033 -2.3845457978029172
atom 4.0384257234797651 1.4160650458726369 3.9748398662987565 Si
    velocity -4.2702108496268290 -6.0726826335997037 -3.5477206065695222
atom 4.0115927392408341 4.0777175541774708 1.3124021090373554 Si
    velocity -3.4604947413394607 -0.7802234249286070 -0.3011780081767397
