#=======================================================
# FHI-aims file: geometry.in.supercell.0600K.003
# Created using the Atomic Simulation Environment (ASE)
# Tue Jun 10 14:20:54 2025

# Additional information:
#  created from force constants
#  T = 600.0 K
#  quantum:             True
#  deterministic:       False
#  plus_minus:          False
#  gauge_eigenvectors:  False
#  Random seed:         2077075479
#  Sample number:       4
#  Harmonic E_pot:        0.357eV (344.85K)
#=======================================================
lattice_vector 5.4088325884509993 0.0000000000639995 0.0000000001369997 
lattice_vector 0.0000000000629998 5.4088325742939993 0.0000000001030003 
lattice_vector 0.0000000001370002 0.0000000001020002 5.4088325742309999 
atom 0.0874226533405846 0.0137412664254456 0.0594759704955554 Si
    velocity -0.1443234366479942 -4.5189378450124131 2.3551404241349676
atom -0.1225338575883700 2.6819734175053540 2.6538789224311343 Si
    velocity -7.7198298376782422 -4.0249090484956263 5.0057549988012466
atom 2.6651354876029676 0.0038877043292793 2.7349793995625782 Si
    velocity -5.6618338668458010 -2.3843606755815943 -4.4365445614185663
atom 2.7318039002023355 2.7302563968311113 0.0090266613205196 Si
    velocity 5.6957341319669439 -2.4874823065453606 -8.6669667122572935
atom 1.3706354582474025 1.5103855730213538 1.3323851295034370 Si
    velocity -1.1889632534939376 6.7552823311039774 2.9151236960695392
atom 1.3933211430025068 4.0318038547467117 3.9630618887455218 Si
    velocity 2.4015769597285090 0.6104379512244361 -1.9511415664160392
atom 4.0293220366471214 1.2118841903710942 4.1190808754802708 Si
    velocity 2.5155765315512930 5.2286373228730341 2.7185752561699208
atom 4.0713909443725935 4.0425653200911302 1.3546088758671371 Si
    velocity 4.1020627714192299 0.8213322704335473 2.0600584649162248
