#=======================================================
# FHI-aims file: geometry.in
# Created using the Atomic Simulation Environment (ASE)
# Tue Jun 10 15:25:57 2025
#=======================================================
lattice_vector 5.4088325884509993 0.0000000000639995 0.0000000001369997 
lattice_vector 0.0000000000629998 5.4088325742939993 0.0000000001030003 
lattice_vector 0.0000000001370002 0.0000000001020002 5.4088325742309999 
atom -0.0080151327018437 -0.1291211701581841 0.0096006424864494 Si
atom -0.0196779182460621 2.7158426188644258 2.7495530783503832 Si
atom 2.4896299664395798 0.0967992122734584 2.6036753474922119 Si
atom 2.9507804750404971 2.7498955422716267 0.0165436967853470 Si
atom 1.2194295917845528 1.4839803680389760 1.2951530351756484 Si
atom 1.4281782717721090 4.0956821088796636 4.1651956238287440 Si
atom 4.1652796688093066 1.1187780164350944 3.8627216093644861 Si
atom 4.0008928430693009 4.0946410267175191 1.5240546899448355 Si
