#=======================================================
# FHI-aims file: geometry.in.supercell.0200K.011
# Created using the Atomic Simulation Environment (ASE)
# Tue Jun 10 14:20:51 2025

# Additional information:
#  created from force constants
#  T = 200.0 K
#  quantum:             True
#  deterministic:       False
#  plus_minus:          False
#  gauge_eigenvectors:  False
#  Random seed:         233285346
#  Sample number:       12
#  Harmonic E_pot:        0.244eV (235.95K)
#=======================================================
lattice_vector 5.4088325884509993 0.0000000000639995 0.0000000001369997 
lattice_vector 0.0000000000629998 5.4088325742939993 0.0000000001030003 
lattice_vector 0.0000000001370002 0.0000000001020002 5.4088325742309999 
atom 0.0295077908677213 -0.0186300187061683 -0.0465233027041296 Si
    velocity -1.4605405075606748 1.5368251766256320 -1.5748119653091723
atom -0.0434356880838479 2.7121784934715056 2.6935551217354692 Si
    velocity -1.7652805173837347 5.0624518302863786 -0.8758122889596287
atom 2.7168361741188494 -0.0157331719741782 2.6977817692636243 Si
    velocity -3.2315794398874935 1.8019735540793056 -1.7695762388789202
atom 2.7895017153502311 2.7226995583357025 0.0074288001625264 Si
    velocity 4.9471992242141862 -3.8087053270388078 -0.3001002483371693
atom 1.2694063133663773 1.3679266827135519 1.4304610055911458 Si
    velocity 1.7669929162184652 -0.4983135453845684 0.6255741843954941
atom 1.3858631403924735 3.9967245441223058 4.0306164649860809 Si
    velocity -1.0814490219660031 -5.2896258604436834 0.5869338143979140
atom 4.0634128583416436 1.3800992513492851 4.0330771539094012 Si
    velocity -1.3930700898894104 1.5089630978475159 2.5924355985187386
atom 4.0154054618141659 4.0812323840905043 1.3801007104697485 Si
    velocity 2.2177274362546653 -0.3135689259717726 0.7153571441727430
