#=======================================================
# FHI-aims file: geometry.in.supercell.0200K.015
# Created using the Atomic Simulation Environment (ASE)
# Tue Jun 10 14:20:51 2025

# Additional information:
#  created from force constants
#  T = 200.0 K
#  quantum:             True
#  deterministic:       False
#  plus_minus:          False
#  gauge_eigenvectors:  False
#  Random seed:         233285346
#  Sample number:       16
#  Harmonic E_pot:        0.185eV (179.27K)
#=======================================================
lattice_vector 5.4088325884509993 0.0000000000639995 0.0000000001369997 
lattice_vector 0.0000000000629998 5.4088325742939993 0.0000000001030003 
lattice_vector 0.0000000001370002 0.0000000001020002 5.4088325742309999 
atom -0.0521891692132244 -0.0103049286129068 -0.1454457775455424 Si
    velocity -0.6209403833159267 1.5065825166440270 0.8471621295658366
atom 0.0084485670192143 2.7199952583971023 2.6887448604472426 Si
    velocity -0.9289963701191907 1.8897509530648047 0.7077423550397585
atom 2.7604968630535875 -0.0168226236184356 2.7327935384151476 Si
    velocity -1.1960131175254058 5.5810722916347073 -1.4671272014739649
atom 2.6803863334266089 2.6888326038638160 0.0814558826809157 Si
    velocity -2.4799541953015098 1.8432047117403707 -2.8001570973368062
atom 1.2886165942253671 1.2683288077404269 1.3641360927057851 Si
    velocity 0.8484181647726222 -4.3575529436294893 4.9522672848189595
atom 1.4336257164536848 4.0959328500337087 4.0839401285413217 Si
    velocity 3.2559260617112269 -2.9111324228907822 1.2366945883362206
atom 4.0654688974954691 1.4453715135648375 4.0780384218018257 Si
    velocity 0.9026397952179781 -0.9043903147942408 -2.7636685036609245
atom 4.0416439634570969 4.0351642420795448 1.3428345763609268 Si
    velocity 0.2189200445602059 -2.6475347917693965 -0.7129135552890802
