#=======================================================
# FHI-aims file: geometry.in.supercell.0200K.004
# Created using the Atomic Simulation Environment (ASE)
# Tue Jun 10 14:20:51 2025

# Additional information:
#  created from force constants
#  T = 200.0 K
#  quantum:             True
#  deterministic:       False
#  plus_minus:          False
#  gauge_eigenvectors:  False
#  Random seed:         233285346
#  Sample number:       5
#  Harmonic E_pot:        0.372eV (359.77K)
#=======================================================
lattice_vector 5.4088325884509993 0.0000000000639995 0.0000000001369997 
lattice_vector 0.0000000000629998 5.4088325742939993 0.0000000001030003 
lattice_vector 0.0000000001370002 0.0000000001020002 5.4088325742309999 
atom -0.0069090239297673 -0.1092944259473006 -0.0344185611940035 Si
    velocity -2.4185688445036604 1.4248011824382329 0.5146026382561500
atom -0.0003059033079399 2.8163686162268973 2.7987294387724164 Si
    velocity 0.7869025471368232 2.6292292622843592 -1.6554067046292811
atom 2.7070781949195197 0.0335137108003314 2.6135383456562202 Si
    velocity 1.8182303204964836 -3.7245107129386628 0.1586747557760915
atom 2.7031003681249937 2.6640484504509852 0.0064654542946206 Si
    velocity -2.3776390236104250 -3.7711123806283138 -2.0179429933474706
atom 1.2414723445942919 1.3997078128141005 1.3268680467340712 Si
    velocity -0.6590921814289893 0.5363150222822050 1.1523954070467917
atom 1.4129157442536107 4.1525891889803290 4.0314423968256472 Si
    velocity 5.7298457373512290 0.3443390664287905 -0.6814536661314013
atom 4.1340070499854402 1.3789171140836594 4.0609127674426677 Si
    velocity 0.2685220385158306 2.6132835161455668 -2.4136217171574450
atom 4.0351389912865008 3.8906472559803138 1.4229598348786880 Si
    velocity -3.1482005939572919 -0.0523449560121776 4.9427522801865642
