#=======================================================
# FHI-aims file: geometry.in.supercell.0200K.014
# Created using the Atomic Simulation Environment (ASE)
# Tue Jun 10 14:20:51 2025

# Additional information:
#  created from force constants
#  T = 200.0 K
#  quantum:             True
#  deterministic:       False
#  plus_minus:          False
#  gauge_eigenvectors:  False
#  Random seed:         233285346
#  Sample number:       15
#  Harmonic E_pot:        0.234eV (226.17K)
#=======================================================
lattice_vector 5.4088325884509993 0.0000000000639995 0.0000000001369997 
lattice_vector 0.0000000000629998 5.4088325742939993 0.0000000001030003 
lattice_vector 0.0000000001370002 0.0000000001020002 5.4088325742309999 
atom -0.0574857429685604 -0.0518803616489244 0.0571122897309302 Si
    velocity 2.2742094913528126 3.9708197522459971 2.9427144826682259
atom -0.0018313618220112 2.6805970008923516 2.7049553079726536 Si
    velocity 0.0951327880823044 2.6690128876378565 -1.3685163941422136
atom 2.6340549057066713 0.0435306432831268 2.7052804102602352 Si
    velocity -0.6890501420645195 2.5253887504799266 -3.0248522681875492
atom 2.8370581893441611 2.7635384529748817 -0.0588160068411717 Si
    velocity -1.2856766310271754 -5.1632242802968538 -4.7124566780565100
atom 1.4008580058071334 1.4255375663020435 1.2379142836016315 Si
    velocity -0.5267325587293827 -2.6026747024857220 3.7513595153225219
atom 1.3585432931491759 4.0793290843798786 4.0257344544862619 Si
    velocity 0.2799480713635935 -0.9836161667124390 -0.5552996456532429
atom 4.0904068835984750 1.3015737797746640 4.1033023322911450 Si
    velocity -1.0297237698020143 1.6934836207007857 2.1697704392401751
atom 3.9648935931507059 3.9842715573568630 1.4510146519216427 Si
    velocity 0.8818927508243817 -2.1091898615695497 0.7972805488085914
