#=======================================================
# FHI-aims file: geometry.in.supercell.0100K.017
# Created using the Atomic Simulation Environment (ASE)
# Tue Jun 10 14:20:50 2025

# Additional information:
#  created from force constants
#  T = 100.0 K
#  quantum:             True
#  deterministic:       False
#  plus_minus:          False
#  gauge_eigenvectors:  False
#  Random seed:         9222366
#  Sample number:       18
#  Harmonic E_pot:        0.205eV (198.32K)
#=======================================================
lattice_vector 5.4088325884509993 0.0000000000639995 0.0000000001369997 
lattice_vector 0.0000000000629998 5.4088325742939993 0.0000000001030003 
lattice_vector 0.0000000001370002 0.0000000001020002 5.4088325742309999 
atom -0.0150380014503795 -0.0268164336630596 0.0251341477599717 Si
    velocity -1.2860123760245190 -1.5392678340121957 -2.0070474149693895
atom 0.0743538108291352 2.7160873284280984 2.7122272198025978 Si
    velocity -3.1328057800229798 3.7961599024845825 1.8998586729791873
atom 2.6423981569657391 0.0123655732243799 2.6547954565525282 Si
    velocity 1.0163040734107875 0.7041619598553015 1.0692141195634017
atom 2.7071522036705149 2.6936055812994257 -0.0199239758402304 Si
    velocity 0.0492526220481530 -1.2853748918478443 -2.0709790720561374
atom 1.3877743921800252 1.3871897602018100 1.2940509431195582 Si
    velocity 3.4820127551492535 -1.3199601063677959 -0.2106726354392154
atom 1.3080750132046530 4.1323146913832147 4.1665680543925490 Si
    velocity 1.1232349122089453 -1.3946727239393060 0.4149048625483241
atom 4.1198727124539047 1.3229686819732605 3.9923728505482958 Si
    velocity -2.2021830822000314 0.0737198954741852 -0.5870053459066358
atom 4.0019094781041904 3.9887825405741526 1.4012730270886997 Si
    velocity 0.9501968754303911 0.9652337983530732 1.4917268132804651
