#=======================================================
# FHI-aims file: geometry.in.supercell.0100K.018
# Created using the Atomic Simulation Environment (ASE)
# Tue Jun 10 14:20:50 2025

# Additional information:
#  created from force constants
#  T = 100.0 K
#  quantum:             True
#  deterministic:       False
#  plus_minus:          False
#  gauge_eigenvectors:  False
#  Random seed:         9222366
#  Sample number:       19
#  Harmonic E_pot:        0.087eV (84.25K)
#=======================================================
lattice_vector 5.4088325884509993 0.0000000000639995 0.0000000001369997 
lattice_vector 0.0000000000629998 5.4088325742939993 0.0000000001030003 
lattice_vector 0.0000000001370002 0.0000000001020002 5.4088325742309999 
atom -0.0441172334710315 0.0343057830975338 0.0798937236727204 Si
    velocity 0.6704427000757737 0.9208040317572493 -4.0373113211624938
atom 0.0072313980413144 2.7047005913697313 2.7243192842856003 Si
    velocity -0.3028221649766163 0.1246002567748655 -0.6021554556491430
atom 2.7289841960147414 0.0011756794639496 2.6765534418744679 Si
    velocity -1.0992711536745687 -0.7167586191850377 1.5875565628590833
atom 2.6983935843880289 2.6831969000068994 -0.0825424018753090 Si
    velocity -0.6143659296887819 0.6959017551990677 -1.4640591933363383
atom 1.4027143652624785 1.3710155635093095 1.4134952192086809 Si
    velocity 2.1217085877320239 1.3263475284144848 -2.5750695538528854
atom 1.2936609765295422 4.1130739053220706 4.0750034525856718 Si
    velocity -1.5094751686198586 -0.6904667816148681 2.5476300961785352
atom 4.0765659667870917 1.3177437938461851 4.0240747077871371 Si
    velocity 2.0611891501442603 -1.8287880229956293 0.8763089784288660
atom 4.0630645123541367 4.0012855067276565 1.3157002958758370 Si
    velocity -1.3274060209922325 0.1683598516498674 3.6670998865343765
