#=======================================================
# FHI-aims file: geometry.in.supercell.0100K.021
# Created using the Atomic Simulation Environment (ASE)
# Tue Jun 10 14:20:50 2025

# Additional information:
#  created from force constants
#  T = 100.0 K
#  quantum:             True
#  deterministic:       False
#  plus_minus:          False
#  gauge_eigenvectors:  False
#  Random seed:         9222366
#  Sample number:       22
#  Harmonic E_pot:        0.171eV (165.30K)
#=======================================================
lattice_vector 5.4088325884509993 0.0000000000639995 0.0000000001369997 
lattice_vector 0.0000000000629998 5.4088325742939993 0.0000000001030003 
lattice_vector 0.0000000001370002 0.0000000001020002 5.4088325742309999 
atom 0.0065787507306394 0.0249984436295102 -0.0271021720045607 Si
    velocity 1.3454194789988150 -0.2100392851918833 -1.0716563607277561
atom -0.1179805530141752 2.7224520977844384 2.7383741644159723 Si
    velocity 0.4245217794196960 -1.4290868083839976 0.8845212911732618
atom 2.7574179895895714 -0.0417880164114450 2.6713046846823323 Si
    velocity 0.6479732361033531 2.2991628998691191 -3.3683929348138411
atom 2.7119962623832321 2.7122881643616945 0.0446505514268570 Si
    velocity -0.6282259290720532 -0.4860987757445689 1.0956740530072917
atom 1.3174065517554516 1.3580212556507616 1.3808507988631409 Si
    velocity -2.0364506309026007 0.4695546073679263 2.8063725929588332
atom 1.4214592515964510 4.0507896250098838 4.0006844824587073 Si
    velocity -0.3788688661267148 3.3764231891820518 -0.2956674289682218
atom 3.9840491837455483 1.3500180956126213 4.0962715674604642 Si
    velocity 1.3632711030675382 -2.8182343064978781 -2.3161702044932611
atom 4.1455703290227062 4.0497180577108276 1.3214636460955889 Si
    velocity -0.7376401714880330 -1.2016815206007694 2.2653189918636927
