#=======================================================
# FHI-aims file: geometry.in.supercell.0100K.002
# Created using the Atomic Simulation Environment (ASE)
# Tue Jun 10 14:20:50 2025

# Additional information:
#  created from force constants
#  T = 100.0 K
#  quantum:             True
#  deterministic:       False
#  plus_minus:          False
#  gauge_eigenvectors:  False
#  Random seed:         9222366
#  Sample number:       3
#  Harmonic E_pot:        0.283eV (273.36K)
#=======================================================
lattice_vector 5.4088325884509993 0.0000000000639995 0.0000000001369997 
lattice_vector 0.0000000000629998 5.4088325742939993 0.0000000001030003 
lattice_vector 0.0000000001370002 0.0000000001020002 5.4088325742309999 
atom -0.1195911515326137 0.0005029192278405 -0.0801256430529561 Si
    velocity 1.1130843001976070 1.8896754108399989 0.0240442364708398
atom 0.1379848522713388 2.7329132607431754 2.6834564010934199 Si
    velocity -2.8553640325042338 1.2634727791732256 -1.3780342674033756
atom 2.6923469541736749 -0.0150239863963067 2.7262545546813848 Si
    velocity 4.1411121689406745 -3.8574726732224613 1.5183966828968698
atom 2.7505836576984595 2.6152133233847548 0.0169624553508785 Si
    velocity 0.1426475557613471 0.9755539851827343 -0.7886533696090710
atom 1.2733921862261413 1.3293704759123774 1.2930973106659405 Si
    velocity -0.6344935306983076 -0.1285297548541905 -1.8139550176419530
atom 1.3682532994564280 4.1119778773863560 4.1435236213362838 Si
    velocity 0.5452290167243389 -0.6885230740508586 1.2510264784965908
atom 4.0668879989594950 1.4053778488359734 4.0642537128543781 Si
    velocity -2.5817245516910208 -1.0997175119578853 -0.2169374019521013
atom 4.0566399688390193 4.0461660044873922 1.3790753104935995 Si
    velocity 0.1295090732695943 1.6455408388894368 1.4041126587422006
