#=======================================================
# FHI-aims file: geometry.in.supercell.0100K.029
# Created using the Atomic Simulation Environment (ASE)
# Tue Jun 10 14:20:50 2025

# Additional information:
#  created from force constants
#  T = 100.0 K
#  quantum:             True
#  deterministic:       False
#  plus_minus:          False
#  gauge_eigenvectors:  False
#  Random seed:         9222366
#  Sample number:       30
#  Harmonic E_pot:        0.531eV (513.17K)
#=======================================================
lattice_vector 5.4088325884509993 0.0000000000639995 0.0000000001369997 
lattice_vector 0.0000000000629998 5.4088325742939993 0.0000000001030003 
lattice_vector 0.0000000001370002 0.0000000001020002 5.4088325742309999 
atom -0.0405573200091237 -0.0205638217685272 -0.0012273311039537 Si
    velocity -1.5116069212139247 -1.7956330038019694 1.1858773766816817
atom 0.0959494210202563 2.6034687001160171 2.7320561587740766 Si
    velocity -1.1259419670003530 -1.1672770240062831 -1.1242825478204883
atom 2.6298498140742317 -0.0094283918698564 2.6443435218944153 Si
    velocity 3.5522620817026667 1.9718656486770103 1.8392174194509021
atom 2.8600438666520676 2.8165059363128515 -0.0044266025478517 Si
    velocity 1.2464895966365059 -0.3814747378926069 -1.1527207900791676
atom 1.3281363201639838 1.3011213026051143 1.3220897497068085 Si
    velocity -2.1106179147445485 -0.7265149288886764 1.6890012530869345
atom 1.2207993918091304 4.1244004707618069 4.0249057797761711 Si
    velocity -0.9473781413913266 2.9045328873793079 0.6269243367862226
atom 4.0392944482017299 1.3403866702213376 4.0201146866157238 Si
    velocity -1.6178319222350539 -1.4548681292350902 -2.8714901609079599
atom 4.0929818243991312 4.0706068570587659 1.4886417603138864 Si
    velocity 2.5146251882460340 0.6493692877683079 -0.1925268871981242
