#=======================================================
# FHI-aims file: geometry.in.supercell.0100K.025
# Created using the Atomic Simulation Environment (ASE)
# Tue Jun 10 14:20:50 2025

# Additional information:
#  created from force constants
#  T = 100.0 K
#  quantum:             True
#  deterministic:       False
#  plus_minus:          False
#  gauge_eigenvectors:  False
#  Random seed:         9222366
#  Sample number:       26
#  Harmonic E_pot:        0.187eV (180.85K)
#=======================================================
lattice_vector 5.4088325884509993 0.0000000000639995 0.0000000001369997 
lattice_vector 0.0000000000629998 5.4088325742939993 0.0000000001030003 
lattice_vector 0.0000000001370002 0.0000000001020002 5.4088325742309999 
atom 0.0433073324450144 -0.0145460458980958 -0.0337817869760151 Si
    velocity -1.0395011084352415 -0.1869076492911875 -1.6304174491983900
atom 0.0386425356517263 2.6786541273878184 2.6889350538858219 Si
    velocity 0.5563355237724786 0.8753925790633218 -0.1075632307336729
atom 2.7106954724969743 0.0393804563987414 2.7898272465658209 Si
    velocity -1.2894886072917959 0.5027873938136523 -3.8675424104121903
atom 2.6923098407478143 2.6948629602281398 0.0059162807727591 Si
    velocity 0.1222593458000019 -0.6169528427080015 0.8205916753851563
atom 1.3477084629460256 1.3871393338588203 1.3489739691829559 Si
    velocity -0.5476230992249228 0.3825008948166632 -2.7851617351028550
atom 1.3559635572286892 3.9999201760172536 4.0019800035655626 Si
    velocity 0.9557286609100974 0.2895723722777405 4.0525970483145928
atom 4.0149288206841636 1.3518498186903529 4.0485425395860286 Si
    velocity 3.3029357420464676 -0.1739960155721709 1.5339523648707871
atom 4.0229417439551183 4.0892368967259030 1.3761044168333643 Si
    velocity -2.0606464575770849 -1.0723967324000174 1.9835437368765698
