#=======================================================
# FHI-aims file: ./geometry.in
# Created using the Atomic Simulation Environment (ASE)
# Tue Jun 10 14:47:20 2025
#=======================================================
lattice_vector 5.4088325884509993 0.0000000000639995 0.0000000001369997 
lattice_vector 0.0000000000629998 5.4088325742939993 0.0000000001030003 
lattice_vector 0.0000000001370002 0.0000000001020002 5.4088325742309999 
atom_frac -0.0217006981824493 0.0083927188998532 -0.0188711519228937 Si
atom_frac 0.0178137765245374 0.5149797542176586 0.5092028806964071 Si
atom_frac 0.4839180046067145 -0.0034245484551392 0.4848163149489668 Si
atom_frac 0.5188020452947520 0.4679279917093106 0.0193488817971721 Si
atom_frac 0.2359110977753813 0.2451023003503463 0.2385518286140627 Si
atom_frac 0.2625292669186264 0.7381442891224739 0.7792727076484314 Si
atom_frac 0.7424652648595481 0.2691325204003258 0.7112548340652277 Si
atom_frac 0.7602612422007334 0.7597449737875098 0.2764237041544157 Si
