#=======================================================
# FHI-aims file: geometry.in
# Created using the Atomic Simulation Environment (ASE)
# Tue Jun 10 14:22:42 2025
#=======================================================
lattice_vector 5.4088325884509993 0.0000000000639995 0.0000000001369997 
lattice_vector 0.0000000000629998 5.4088325742939993 0.0000000001030003 
lattice_vector 0.0000000001370002 0.0000000001020002 5.4088325742309999 
atom 0.0525658923850651 0.0385695779932255 0.0581445264142563 Si
atom -0.0017701546387890 2.7487472831493056 2.6540568113163903 Si
atom 2.7584901820457586 -0.0026038111316921 2.7722561042541609 Si
atom 2.6769535916255909 2.7161228183647448 -0.0660486837169232 Si
atom 1.3610714130889010 1.3615503141296237 1.3867857201511007 Si
atom 1.3048182175186023 4.0417468101495233 4.0375858273374705 Si
atom 4.0244823716015583 1.3027936895689454 4.0671956541242738 Si
atom 4.0498862525333781 4.0195710409174508 1.3165217635343387 Si
