#=======================================================
# FHI-aims file: geometry.in
# Created using the Atomic Simulation Environment (ASE)
# Tue Jun 10 15:24:29 2025
#=======================================================
lattice_vector 5.4088325884509993 0.0000000000639995 0.0000000001369997 
lattice_vector 0.0000000000629998 5.4088325742939993 0.0000000001030003 
lattice_vector 0.0000000001370002 0.0000000001020002 5.4088325742309999 
atom -0.1222590438157218 0.1270103238728318 0.1959755591825832 Si
atom 0.0856321207614439 2.6335581066622500 2.6010805118084930 Si
atom 2.7515471275500620 -0.2029848601394318 2.8205641836466753 Si
atom 2.6754544853302678 2.6954122390703317 -0.1572643177794049 Si
atom 1.5187940876146599 1.4255523084829853 1.2354688499203084 Si
atom 1.0959462530128177 4.1512957710901253 4.2228871029920896 Si
atom 4.0465135032020232 1.3432971936537024 3.9234590086927370 Si
atom 4.1748692322710035 4.0533566411062507 1.3843268249713945 Si
