#=======================================================
# FHI-aims file: ./geometry.in
# Created using the Atomic Simulation Environment (ASE)
# Tue Jun 10 17:57:19 2025
#=======================================================
lattice_vector 5.6431102268527997 0.0000000000000001 0.0000000000000001 
lattice_vector 0.0000000000000001 5.6431102268527997 -0.0000000000000001 
lattice_vector -0.0000000000000001 -0.0000000000000001 5.6431102268527997 
atom_frac 0.0017720724207043 0.0000000000000000 0.0000000000000000 Si
atom_frac 0.0000000000000000 0.5000000000000000 0.5000000000000000 Si
atom_frac 0.5000000000000000 0.0000000000000000 0.4999999999999999 Si
atom_frac 0.5000000000000000 0.4999999999999999 -0.0000000000000000 Si
atom_frac 0.2500000000000000 0.2499999999999999 0.2499999999999999 Si
atom_frac 0.2500000000000000 0.7500000000000000 0.7499999999999999 Si
atom_frac 0.7500000000000000 0.2500000000000000 0.7499999999999999 Si
atom_frac 0.7500000000000000 0.7500000000000000 0.2500000000000000 Si
