#=======================================================
# FHI-aims file: ./geometry.in
# Created using the Atomic Simulation Environment (ASE)
# Tue Jun 10 14:23:32 2025
#=======================================================
lattice_vector 5.4088325884509993 0.0000000000639995 0.0000000001369997 
lattice_vector 0.0000000000629998 5.4088325742939993 0.0000000001030003 
lattice_vector 0.0000000001370002 0.0000000001020002 5.4088325742309999 
atom_frac 0.0016277350698646 0.0107097822121289 -0.0080078394805723 Si
atom_frac 0.0012156927899765 0.4936479035699798 0.4946242319002027 Si
atom_frac 0.4974755320834436 -0.0040158917217868 0.5078595361486493 Si
atom_frac 0.5041935755847846 0.5003122706471340 0.0119749882647472 Si
atom_frac 0.2541476023357971 0.2485751538247071 0.2537042654037696 Si
atom_frac 0.2471162935670321 0.7527237603769755 0.7480902433276853 Si
atom_frac 0.7590221459145492 0.2498649245955855 0.7458290673167259 Si
atom_frac 0.7352014226675299 0.7481820964938601 0.2459255071193691 Si
