#=======================================================
# FHI-aims file: geometry.in
# Created using the Atomic Simulation Environment (ASE)
# Tue Jun 10 14:47:45 2025
#=======================================================
lattice_vector 5.4088325884509993 0.0000000000639995 0.0000000001369997 
lattice_vector 0.0000000000629998 5.4088325742939993 0.0000000001030003 
lattice_vector 0.0000000001370002 0.0000000001020002 5.4088325742309999 
atom 0.1206498946949271 -0.0832504209011698 -0.1358361732837337 Si
atom -0.0424168482015547 2.7045775388220927 2.7899069842791469 Si
atom 2.7741709087204365 0.1948450963774947 2.6142615279987913 Si
atom 2.6959487173973877 2.7061631408610456 0.1192848810412609 Si
atom 1.1396700745621988 1.3157594844358955 1.3441220133447616 Si
atom 1.4499702699158963 4.0882272002564388 3.9562986332824699 Si
atom 4.0276580325104518 1.2887161626982508 4.1532378168241539 Si
atom 4.0608467166987445 4.0114595205266870 1.3852220399143007 Si
