#=======================================================
# FHI-aims file: ./geometry.in
# Created using the Atomic Simulation Environment (ASE)
# Tue Jun 10 14:39:58 2025
#=======================================================
lattice_vector 5.4088325884509993 0.0000000000639995 0.0000000001369997 
lattice_vector 0.0000000000629998 5.4088325742939993 0.0000000001030003 
lattice_vector 0.0000000001370002 0.0000000001020002 5.4088325742309999 
atom_frac -0.0019494577046745 0.0329925409171314 -0.0116613553209212 Si
atom_frac -0.0119085976123165 0.5223384615819285 0.5237344860399646 Si
atom_frac 0.5255065167803193 -0.0188091158741462 0.4951173069286938 Si
atom_frac 0.4823833766890831 0.4675279636898806 -0.0053874370687898 Si
atom_frac 0.2362891518702490 0.2391922397754510 0.2760587953809630 Si
atom_frac 0.2553798135355953 0.7565469881433544 0.7530047629606639 Si
atom_frac 0.7470484708020279 0.2581117391232107 0.7463498748963608 Si
atom_frac 0.7672507256221855 0.7420991826309800 0.2227835661799441 Si
