#=======================================================
# FHI-aims file: ./geometry.in
# Created using the Atomic Simulation Environment (ASE)
# Tue Jun 10 15:22:35 2025
#=======================================================
lattice_vector 5.4088325884509993 0.0000000000639995 0.0000000001369997 
lattice_vector 0.0000000000629998 5.4088325742939993 0.0000000001030003 
lattice_vector 0.0000000001370002 0.0000000001020002 5.4088325742309999 
atom_frac 0.0448020578669584 0.0029854469246878 0.0102990972530454 Si
atom_frac -0.0371456412274958 0.5021918777016747 0.5188198910535975 Si
atom_frac 0.5065614646526474 0.0008305553364663 0.4922440040300141 Si
atom_frac 0.4969636662331978 0.4889216410227779 -0.0520955893014936 Si
atom_frac 0.2747216630349726 0.2823642108175867 0.2745725112196141 Si
atom_frac 0.2301094549312076 0.7418387254944401 0.7266374072157057 Si
atom_frac 0.7539393880184336 0.2190229899950532 0.7905296835063942 Si
atom_frac 0.7300479465156127 0.7618445527203176 0.2389929950216175 Si
