#=======================================================
# FHI-aims file: ./geometry.in
# Created using the Atomic Simulation Environment (ASE)
# Tue Jun 10 14:43:39 2025
#=======================================================
lattice_vector 5.4088325884509993 0.0000000000639995 0.0000000001369997 
lattice_vector 0.0000000000629998 5.4088325742939993 0.0000000001030003 
lattice_vector 0.0000000001370002 0.0000000001020002 5.4088325742309999 
atom_frac 0.0158862312588773 -0.0083313863212399 0.0096189127142777 Si
atom_frac 0.0020634017453878 0.5194856880833900 0.5018381681594732 Si
atom_frac 0.4759900965378843 0.0226957310433947 0.4976540097913166 Si
atom_frac 0.5188199361993500 0.4812149968020902 -0.0085961920504686 Si
atom_frac 0.2468088886274072 0.2583212963096805 0.2606561224446542 Si
atom_frac 0.2609676041141616 0.7427592775608466 0.7635911604820623 Si
atom_frac 0.7592755813867685 0.2265325746707005 0.7199902912563328 Si
atom_frac 0.7201882601655564 0.7573218218128804 0.2552475272045603 Si
