#=======================================================
# FHI-aims file: ./geometry.in
# Created using the Atomic Simulation Environment (ASE)
# Tue Jun 10 15:21:45 2025
#=======================================================
lattice_vector 5.4088325884509993 0.0000000000639995 0.0000000001369997 
lattice_vector 0.0000000000629998 5.4088325742939993 0.0000000001030003 
lattice_vector 0.0000000001370002 0.0000000001020002 5.4088325742309999 
atom_frac -0.0293437070823617 -0.0329244653797938 0.0050981931245642 Si
atom_frac 0.0284782970522502 0.5327679098815330 0.5245607067705271 Si
atom_frac 0.5034898236985617 0.0451315875528846 0.4794163767822077 Si
atom_frac 0.4902032380054628 0.4672396092649775 -0.0070538584678180 Si
atom_frac 0.2171242415428008 0.2469157659357475 0.2409276995420840 Si
atom_frac 0.2800116066403013 0.7721733401105694 0.7542199663282084 Si
atom_frac 0.7764031941738468 0.2657791509028908 0.7381487924863911 Si
atom_frac 0.7336333059496982 0.7029171016993445 0.2646821234343216 Si
