#=======================================================
# FHI-aims file: ./geometry.in
# Created using the Atomic Simulation Environment (ASE)
# Mon Jun  9 17:53:27 2025
#=======================================================
lattice_vector 0.0000000000000000 2.7200000000000002 2.7200000000000002 
lattice_vector 2.7200000000000002 0.0000000000000000 2.7200000000000002 
lattice_vector 2.7200000000000002 2.7200000000000002 0.0000000000000000 
atom_frac 0.0000000000000000 0.0000000000000000 -0.0000000000000000 Si
atom_frac 0.2500000000000000 0.2500000000000000 0.2500000000000000 Si
