#=======================================================
# FHI-aims file: ./geometry.in
# Created using the Atomic Simulation Environment (ASE)
# Tue Jun 10 15:19:06 2025
#=======================================================
lattice_vector 5.4088325884509993 0.0000000000639995 0.0000000001369997 
lattice_vector 0.0000000000629998 5.4088325742939993 0.0000000001030003 
lattice_vector 0.0000000001370002 0.0000000001020002 5.4088325742309999 
atom_frac 0.0175755301071877 0.0082549719520368 -0.0310161902291422 Si
atom_frac 0.0037575821241323 0.5005344876872798 0.4964565684979849 Si
atom_frac 0.5198293674713258 -0.0062976265322308 0.4895865357867339 Si
atom_frac 0.4790102309391741 0.5025322247063584 0.0227057987867963 Si
atom_frac 0.2405786043136286 0.2448663951955701 0.2826400849322153 Si
atom_frac 0.2512168309803670 0.7501952920835427 0.7380271874155151 Si
atom_frac 0.7337671299105220 0.2490258678943313 0.7748232240324046 Si
atom_frac 0.7542647242026438 0.7508883869986611 0.2267767907746272 Si
