#=======================================================
# FHI-aims file: geometry.in
# Created using the Atomic Simulation Environment (ASE)
# Tue Jun 10 14:27:36 2025
#=======================================================
lattice_vector 5.4088325884509993 0.0000000000639995 0.0000000001369997 
lattice_vector 0.0000000000629998 5.4088325742939993 0.0000000001030003 
lattice_vector 0.0000000001370002 0.0000000001020002 5.4088325742309999 
atom -0.1195911515326137 0.0005029192278405 -0.0801256430529561 Si
atom 0.1379848522713388 2.7329132607431754 2.6834564010934199 Si
atom 2.6923469541736749 -0.0150239863963067 2.7262545546813848 Si
atom 2.7505836576984595 2.6152133233847548 0.0169624553508785 Si
atom 1.2733921862261413 1.3293704759123774 1.2930973106659405 Si
atom 1.3682532994564280 4.1119778773863560 4.1435236213362838 Si
atom 4.0668879989594950 1.4053778488359734 4.0642537128543781 Si
atom 4.0566399688390193 4.0461660044873922 1.3790753104935995 Si
