#=======================================================
# FHI-aims file: geometry.in
# Created using the Atomic Simulation Environment (ASE)
# Tue Jun 10 14:59:48 2025
#=======================================================
lattice_vector 5.4088325884509993 0.0000000000639995 0.0000000001369997 
lattice_vector 0.0000000000629998 5.4088325742939993 0.0000000001030003 
lattice_vector 0.0000000001370002 0.0000000001020002 5.4088325742309999 
atom 0.0446083292748571 -0.1369664010464370 -0.0365733295916919 Si
atom -0.1182656245838451 2.6914465238329743 2.4872614966394222 Si
atom 2.6164693509597301 -0.0357142354116256 2.7064914504865376 Si
atom 2.8529066629651370 2.8904749595805237 0.1123249692748807 Si
atom 1.4015284656711309 1.4826301488861842 1.3783802019928877 Si
atom 1.3701707333453912 3.7748092370024882 4.0527582235412254 Si
atom 4.0318134213318668 1.3815411186028663 4.1405447289950459 Si
atom 4.0272664269537106 4.1782763719329852 1.3853099820747279 Si
