#=======================================================
# FHI-aims file: ./geometry.in
# Created using the Atomic Simulation Environment (ASE)
# Mon Jun  9 17:57:22 2025
#=======================================================
lattice_vector 0.0000000000000000 2.7199999999999998 2.7199999999999998 
lattice_vector 2.7199999999999998 0.0000000000000000 2.7199999999999998 
lattice_vector 2.7199999999999998 2.7199999999999998 0.0000000000000000 
atom_frac 0.0000000000000000 0.0000000000000000 0.0000000000000000 Si
atom_frac 0.2499999999999999 0.2500000000000000 0.2500000000000000 Si
