#=======================================================
# FHI-aims file: geometry.in
# Created using the Atomic Simulation Environment (ASE)
# Tue Jun 10 14:54:26 2025
#=======================================================
lattice_vector 5.4088325884509993 0.0000000000639995 0.0000000001369997 
lattice_vector 0.0000000000629998 5.4088325742939993 0.0000000001030003 
lattice_vector 0.0000000001370002 0.0000000001020002 5.4088325742309999 
atom -0.0602593213890554 -0.1052671664630878 0.0205889963853303 Si
atom 0.1495846347907696 2.5985079027630036 2.6523817099279903 Si
atom 2.6089174740771433 0.1928865276574888 2.6582523227979458 Si
atom 2.7352154560132873 2.6587669230284972 0.0355007695384674 Si
atom 1.2845346957329891 1.3158140167324475 1.2355814950512636 Si
atom 1.4005825592904226 4.0591591506695694 4.0753248616754671 Si
atom 4.0916089373631284 1.4398957032903792 4.1095220787888138 Si
atom 4.0163133301399139 4.0667346658740922 1.4393454892584945 Si
