#=======================================================
# FHI-aims file: geometry.in
# Created using the Atomic Simulation Environment (ASE)
# Tue Jun 10 14:40:22 2025
#=======================================================
lattice_vector 5.4088325884509993 0.0000000000639995 0.0000000001369997 
lattice_vector 0.0000000000629998 5.4088325742939993 0.0000000001030003 
lattice_vector 0.0000000001370002 0.0000000001020002 5.4088325742309999 
atom -0.0616764111194363 0.0534464958539997 -0.0600163833722765 Si
atom 0.1163422246087960 2.7596384213681504 2.6440089335812358 Si
atom 2.5770339381130656 -0.0749938762659757 2.7716740902617603 Si
atom 2.7849281567570103 2.6700645851905342 0.0865191661874011 Si
atom 1.3011817265602739 1.3201361902551085 1.3230704043518262 Si
atom 1.3736914306945034 3.9718575744750377 4.0747026263142256 Si
atom 4.0608720152088669 1.4372711361121391 4.0095786789327059 Si
atom 4.0741246851620296 4.0890771963964934 1.3769602071650071 Si
