#=======================================================
# FHI-aims file: geometry.in
# Created using the Atomic Simulation Environment (ASE)
# Tue Jun 10 14:41:10 2025
#=======================================================
lattice_vector 5.4088325884509993 0.0000000000639995 0.0000000001369997 
lattice_vector 0.0000000000629998 5.4088325742939993 0.0000000001030003 
lattice_vector 0.0000000001370002 0.0000000001020002 5.4088325742309999 
atom -0.0028173892202049 -0.0002593093241000 0.0581875090828134 Si
atom -0.0109849256084043 2.7056294413298883 2.6779543641745391 Si
atom 2.7917257349197246 0.0528815209700405 2.7399085204463036 Si
atom 2.7200123806759189 2.6497812559331977 -0.0725774096356962 Si
atom 1.3701093565041651 1.2927338666503370 1.3632874918260236 Si
atom 1.3235485158326861 4.0904417897980752 4.0007774427146012 Si
atom 4.1712566975537575 1.3485421428787272 4.1172580439314803 Si
atom 3.8636473955342501 4.0867470151506176 1.3417017608799440 Si
