#=======================================================
# FHI-aims file: geometry.in
# Created using the Atomic Simulation Environment (ASE)
# Tue Jun 10 14:31:19 2025
#=======================================================
lattice_vector 5.4088325884509993 0.0000000000639995 0.0000000001369997 
lattice_vector 0.0000000000629998 5.4088325742939993 0.0000000001030003 
lattice_vector 0.0000000001370002 0.0000000001020002 5.4088325742309999 
atom -0.0136440494741394 0.0498498131077535 0.0685442279311767 Si
atom 0.0059589915997653 2.6629269079219249 2.6612314450740011 Si
atom 2.7450214848756502 0.0159064262081310 2.6814517152601058 Si
atom 2.6778976406286565 2.6472898628835151 -0.0543368599586877 Si
atom 1.3497899910228801 1.3249085425374749 1.4157478067357481 Si
atom 1.2896498153642528 4.1107257526113612 4.0131550081202052 Si
atom 4.1802266019387799 1.3390570380723852 4.0866062091154109 Si
atom 3.9915972900143695 4.0758333801259985 1.3540981711380338 Si
