#=======================================================
# FHI-aims file: geometry.in
# Created using the Atomic Simulation Environment (ASE)
# Tue Jun 10 14:23:43 2025
#=======================================================
lattice_vector 5.4088325884509993 0.0000000000639995 0.0000000001369997 
lattice_vector 0.0000000000629998 5.4088325742939993 0.0000000001030003 
lattice_vector 0.0000000001370002 0.0000000001020002 5.4088325742309999 
atom -0.0064217298963605 -0.0262437509165202 0.0570867860164137 Si
atom -0.0197594633937228 2.7091812303563843 2.6705068034970112 Si
atom 2.7174130033116830 0.0292470086946298 2.6963309446585533 Si
atom 2.6579706978239046 2.6819421027195345 -0.0186306445163798 Si
atom 1.3659414366338873 1.3457774264367488 1.3554282442506265 Si
atom 1.3730561057303843 4.0259382703474174 4.0913037058311286 Si
atom 4.0742210887572794 1.4164351721347153 4.0033073706857945 Si
atom 4.0640766268323336 4.0442202636451352 1.3711645129888896 Si
