#=======================================================
# FHI-aims file: ./geometry.in
# Created using the Atomic Simulation Environment (ASE)
# Mon Jun  9 18:52:55 2025
#=======================================================
lattice_vector 0.0000000003000000 8.1132488615940002 8.1132488615010008 
lattice_vector 8.1132488828820009 0.0000000002490000 8.1132488615520000 
lattice_vector 8.1132488827709999 8.1132488615369986 0.0000000003600000 
atom_frac 0.0008715457832206 0.0000000000016667 0.0000000000063333 Si
atom_frac 0.3333333333360000 0.0000000000016667 0.0000000000063333 Si
atom_frac 0.6666666666693332 0.0000000000016668 0.0000000000063332 Si
atom_frac 0.0000000000026667 0.3333333333349999 0.0000000000063333 Si
atom_frac 0.3333333333360000 0.3333333333350000 0.0000000000063333 Si
atom_frac 0.6666666666693333 0.3333333333350000 0.0000000000063333 Si
atom_frac 0.0000000000026667 0.6666666666683333 0.0000000000063333 Si
atom_frac 0.3333333333360002 0.6666666666683335 0.0000000000063331 Si
atom_frac 0.6666666666693333 0.6666666666683335 0.0000000000063331 Si
atom_frac 0.0000000000026666 0.0000000000016666 0.3333333333396667 Si
atom_frac 0.3333333333359999 0.0000000000016666 0.3333333333396667 Si
atom_frac 0.6666666666693333 0.0000000000016667 0.3333333333396667 Si
atom_frac 0.0000000000026667 0.3333333333349999 0.3333333333396667 Si
atom_frac 0.3333333333360000 0.3333333333350000 0.3333333333396666 Si
atom_frac 0.6666666666693332 0.3333333333350000 0.3333333333396666 Si
atom_frac 0.0000000000026667 0.6666666666683334 0.3333333333396667 Si
atom_frac 0.3333333333360002 0.6666666666683333 0.3333333333396666 Si
atom_frac 0.6666666666693333 0.6666666666683333 0.3333333333396666 Si
atom_frac 0.0000000000026668 0.0000000000016666 0.6666666666729999 Si
atom_frac 0.3333333333359999 0.0000000000016665 0.6666666666730001 Si
atom_frac 0.6666666666693333 0.0000000000016667 0.6666666666729997 Si
atom_frac 0.0000000000026668 0.3333333333349999 0.6666666666730000 Si
atom_frac 0.3333333333360000 0.3333333333350000 0.6666666666729999 Si
atom_frac 0.6666666666693335 0.3333333333350003 0.6666666666729997 Si
atom_frac 0.0000000000026667 0.6666666666683332 0.6666666666729999 Si
atom_frac 0.3333333333360001 0.6666666666683331 0.6666666666730002 Si
atom_frac 0.6666666666693333 0.6666666666683333 0.6666666666729998 Si
atom_frac 0.0833333333306667 0.0833333333316667 0.0833333333270000 Si
atom_frac 0.4166666666640000 0.0833333333316666 0.0833333333270000 Si
atom_frac 0.7499999999973334 0.0833333333316668 0.0833333333269999 Si
atom_frac 0.0833333333306667 0.4166666666650000 0.0833333333270000 Si
atom_frac 0.4166666666640000 0.4166666666650000 0.0833333333270000 Si
atom_frac 0.7499999999973331 0.4166666666649999 0.0833333333270000 Si
atom_frac 0.0833333333306668 0.7499999999983334 0.0833333333269999 Si
atom_frac 0.4166666666639999 0.7499999999983331 0.0833333333270002 Si
atom_frac 0.7499999999973332 0.7499999999983333 0.0833333333270000 Si
atom_frac 0.0833333333306667 0.0833333333316667 0.4166666666603333 Si
atom_frac 0.4166666666640000 0.0833333333316666 0.4166666666603334 Si
atom_frac 0.7499999999973332 0.0833333333316667 0.4166666666603333 Si
atom_frac 0.0833333333306666 0.4166666666649999 0.4166666666603334 Si
atom_frac 0.4166666666639999 0.4166666666649999 0.4166666666603334 Si
atom_frac 0.7499999999973331 0.4166666666649998 0.4166666666603334 Si
atom_frac 0.0833333333306667 0.7499999999983333 0.4166666666603334 Si
atom_frac 0.4166666666639998 0.7499999999983331 0.4166666666603335 Si
atom_frac 0.7499999999973330 0.7499999999983331 0.4166666666603338 Si
atom_frac 0.0833333333306668 0.0833333333316666 0.7499999999936666 Si
atom_frac 0.4166666666640000 0.0833333333316666 0.7499999999936668 Si
atom_frac 0.7499999999973332 0.0833333333316666 0.7499999999936666 Si
atom_frac 0.0833333333306668 0.4166666666649999 0.7499999999936668 Si
atom_frac 0.4166666666640003 0.4166666666649999 0.7499999999936666 Si
atom_frac 0.7499999999973329 0.4166666666649997 0.7499999999936671 Si
atom_frac 0.0833333333306668 0.7499999999983333 0.7499999999936668 Si
atom_frac 0.4166666666640001 0.7499999999983333 0.7499999999936668 Si
atom_frac 0.7499999999973331 0.7499999999983332 0.7499999999936670 Si
