#=======================================================
# FHI-aims file: ./geometry.in
# Created using the Atomic Simulation Environment (ASE)
# Tue May 20 19:25:23 2025
#=======================================================
lattice_vector 5.4260675258199997 -0.0000000000000000 -0.0000000000000000 
lattice_vector -0.0000000000000000 5.4260675258199997 0.0000000000000000 
lattice_vector 0.0000000000000000 0.0000000000000000 5.4260675258199997 
atom_frac 0.0018429553175324 -0.0000000000000000 0.0000000000000000 Si
atom_frac 1.0000000000000000 0.5000000000000000 0.5000000000000000 Si
atom_frac 0.5000000000000000 0.0000000000000000 0.5000000000000000 Si
atom_frac 0.4999999999999999 0.5000000000000000 -0.0000000000000000 Si
atom_frac 0.2500000000000000 0.2500000000000000 0.2500000000000000 Si
atom_frac 0.2500000000000000 0.7500000000000001 0.7500000000000001 Si
atom_frac 0.7499999999999999 0.2500000000000000 0.7500000000000001 Si
atom_frac 0.7499999999999999 0.7500000000000001 0.2500000000000000 Si
