#=======================================================
# FHI-aims file: geometry.in.supercell.0900K.017
# Created using the Atomic Simulation Environment (ASE)
# Tue Jun 10 14:20:56 2025

# Additional information:
#  created from force constants
#  T = 900.0 K
#  quantum:             True
#  deterministic:       False
#  plus_minus:          False
#  gauge_eigenvectors:  False
#  Random seed:         593647994
#  Sample number:       18
#  Harmonic E_pot:        1.005eV (972.06K)
#=======================================================
lattice_vector 5.4088325884509993 0.0000000000639995 0.0000000001369997 
lattice_vector 0.0000000000629998 5.4088325742939993 0.0000000001030003 
lattice_vector 0.0000000001370002 0.0000000001020002 5.4088325742309999 
atom 0.1429431432151264 -0.0778498388433389 -0.0240184691122680 Si
    velocity 3.7482417492669620 -1.6790589525812845 -2.3898156411232958
atom -0.1492515113379999 2.9478123207663547 2.6828508563530313 Si
    velocity -10.1045501514680414 5.3654825583686589 4.3513151095893150
atom 2.7953390489645078 0.2458785925126447 2.7116305185311314 Si
    velocity 11.5172606563060018 2.2459779647853639 -7.3331845574564687
atom 2.6709475093886170 2.3328649713086951 0.0641484327433254 Si
    velocity -6.7997411770286993 -7.3715583918511056 3.5177380170834196
atom 1.1538567706683027 1.2717476348378436 1.5370296195668363 Si
    velocity -1.1916913633516244 -5.5662669653700210 4.3050112073606979
atom 1.6169034014899031 4.0215723396893406 4.1078906640242101 Si
    velocity 1.2404565574660764 -2.2971685159665265 -4.8074434401012214
atom 4.1434442924804280 1.3469482037859108 3.9895189739144419 Si
    velocity -1.6566450214754256 7.9202013704187095 1.9102365331103548
atom 3.8523151112150811 4.1375234992109995 1.1574471273778375 Si
    velocity 3.2466687502847522 1.3823909321962056 0.4461427715371983
