#=======================================================
# FHI-aims file: geometry.in.supercell.0900K.021
# Created using the Atomic Simulation Environment (ASE)
# Tue Jun 10 14:20:56 2025

# Additional information:
#  created from force constants
#  T = 900.0 K
#  quantum:             True
#  deterministic:       False
#  plus_minus:          False
#  gauge_eigenvectors:  False
#  Random seed:         593647994
#  Sample number:       22
#  Harmonic E_pot:        0.806eV (779.40K)
#=======================================================
lattice_vector 5.4088325884509993 0.0000000000639995 0.0000000001369997 
lattice_vector 0.0000000000629998 5.4088325742939993 0.0000000001030003 
lattice_vector 0.0000000001370002 0.0000000001020002 5.4088325742309999 
atom 0.0366459083339002 0.1296630439860159 -0.1041810820508590 Si
    velocity 4.3451889001375488 -0.2183348081195302 0.9683989231318011
atom -0.0120212318584714 2.8316224750326500 2.8268734040520656 Si
    velocity -10.6465448552370532 0.3952951217776948 2.3293817944736772
atom 2.5719199272186390 -0.0078860341897336 2.6626511673202500 Si
    velocity -5.1390659585242684 -1.1280195179773309 -4.3913694262065404
atom 2.7181876709991228 2.5963217757872390 0.0568736700066997 Si
    velocity -2.9308066932369989 -3.5230341704813135 -2.6633991877353052
atom 1.1721269525697091 1.2986153995332672 1.4412663061825628 Si
    velocity 5.2875097964916034 -3.9213075883700035 1.7660000463428132
atom 1.5840325123080050 3.9639311802332671 4.1794006678224562 Si
    velocity -0.4844652815300761 -5.8444178077572575 -0.4437948606686424
atom 3.9727496403479949 1.3377640513863758 3.8334182192165347 Si
    velocity 4.0766047779707142 12.8158363711101657 9.2344147394510401
atom 4.1828563857862644 4.0764658312345361 1.3301953708514271 Si
    velocity 5.4915793139285327 1.4239823998175729 -6.7996320287888441
