#=======================================================
# FHI-aims file: geometry.in.supercell.0900K.025
# Created using the Atomic Simulation Environment (ASE)
# Tue Jun 10 14:20:56 2025

# Additional information:
#  created from force constants
#  T = 900.0 K
#  quantum:             True
#  deterministic:       False
#  plus_minus:          False
#  gauge_eigenvectors:  False
#  Random seed:         593647994
#  Sample number:       26
#  Harmonic E_pot:        0.826eV (798.61K)
#=======================================================
lattice_vector 5.4088325884509993 0.0000000000639995 0.0000000001369997 
lattice_vector 0.0000000000629998 5.4088325742939993 0.0000000001030003 
lattice_vector 0.0000000001370002 0.0000000001020002 5.4088325742309999 
atom 0.0992474253647366 0.1063895486589798 0.0654298181264071 Si
    velocity 9.2611358836212556 -7.2300667726166949 0.0788572241101821
atom -0.1030568296623936 2.8029604749007460 2.7182417429046333 Si
    velocity -1.0181873499218834 -1.6402766745217094 -0.6468353863011002
atom 2.6701498382351363 0.0132909219892141 2.6107903486265482 Si
    velocity -3.3207289194605112 -2.4605753007848516 0.9638300741431943
atom 2.7243100093509600 2.6032037970663109 0.1164785271975339 Si
    velocity 7.4458911499813931 7.0944225312502320 2.2261705740046214
atom 1.2998249025117403 1.3392468406069091 1.3873132024590473 Si
    velocity -5.8382362638887377 0.6260887977728045 5.0625079042442191
atom 1.5462300624584859 4.0530464190217499 4.0477022368525404 Si
    velocity 1.4403356647078933 1.7974881546632440 4.0812564534749427
atom 4.0375193720608697 1.1924631678216076 3.9822854320739309 Si
    velocity -6.0402441516147434 5.3849372182117241 2.3413338758550521
atom 3.9522729855865686 4.1158965530024885 1.2982564151624867 Si
    velocity -1.9299660134246648 -3.5720179539747483 -14.1071207195311104
