#=======================================================
# FHI-aims file: geometry.in.supercell
# Created using the Atomic Simulation Environment (ASE)
# Mon Jun  9 19:04:53 2025

# Additional information:
#  Number of atoms:     16
#=======================================================
lattice_vector 0.0000000002000000 5.4088325743960004 5.4088325743340002 
lattice_vector 5.4088325885880000 0.0000000001660000 5.4088325743679997 
lattice_vector 5.4088325885139996 5.4088325743579997 0.0000000002400000 
atom 0.0000000000649060 0.0000000000730192 0.0000000000351574 Si
atom 0.0000000001649060 2.7044162872710196 2.7044162872021578 Si
atom 2.7044162943589058 0.0000000001560192 2.7044162872191571 Si
atom 2.7044162944589059 2.7044162873540194 5.4088325743861576 Si
atom 2.7044162943219057 2.7044162872520188 0.0000000001551574 Si
atom 2.7044162944219057 5.4088325744500194 2.7044162873221578 Si
atom 5.4088325886159057 2.7044162873350190 2.7044162873391571 Si
atom 5.4088325887159057 5.4088325745330188 5.4088325745061576 Si
atom 1.3522081470978402 1.3522081435419797 1.3522081435825901 Si
atom 1.3522081471978400 4.0566244307399799 4.0566244307495909 Si
atom 4.0566244413918406 1.3522081436249798 4.0566244307665906 Si
atom 4.0566244414918406 4.0566244308229802 6.7610407179335903 Si
atom 4.0566244413548400 4.0566244307209800 1.3522081437025901 Si
atom 4.0566244414548400 6.7610407179189806 4.0566244308695909 Si
atom 6.7610407356488400 4.0566244308039803 4.0566244308865906 Si
atom 6.7610407357488400 6.7610407180019800 6.7610407180535903 Si
