#=======================================================
# FHI-aims file: geometry.in
# Created using the Atomic Simulation Environment (ASE)
# Tue Jun 10 15:00:04 2025
#=======================================================
lattice_vector 5.4088325884509993 0.0000000000639995 0.0000000001369997 
lattice_vector 0.0000000000629998 5.4088325742939993 0.0000000001030003 
lattice_vector 0.0000000001370002 0.0000000001020002 5.4088325742309999 
atom -0.0418656517279214 -0.0898118094320249 0.0066365088221946 Si
atom 0.0378930764219839 2.6261497984166318 2.8896308166980540 Si
atom 2.7103225234574171 0.1525276577170646 2.6142880701496676 Si
atom 2.6507204939695383 2.8154847866557966 -0.1547193719668835 Si
atom 1.3334776888404121 1.3520931181049052 1.2499588372144326 Si
atom 1.4183834157121407 4.1214707690954242 3.9540808234145972 Si
atom 3.9875117250295085 1.2727379724394465 4.2405953658463478 Si
atom 4.1300544940956438 3.9758454301282748 1.4260266732255633 Si
