#=======================================================
# FHI-aims file: geometry.in
# Created using the Atomic Simulation Environment (ASE)
# Tue Jun 10 15:00:42 2025
#=======================================================
lattice_vector 5.4088325884509993 0.0000000000639995 0.0000000001369997 
lattice_vector 0.0000000000629998 5.4088325742939993 0.0000000001030003 
lattice_vector 0.0000000001370002 0.0000000001020002 5.4088325742309999 
atom -0.0256736574781644 0.1525551068717175 0.1368274645231081 Si
atom 0.0301918783747841 2.6382777970360665 2.6721474381678920 Si
atom 2.7035677499724486 -0.0677530762306351 2.7929152480410400 Si
atom 2.7168466122163748 2.6792677731026924 -0.1119793133716534 Si
atom 1.5649421800598888 1.2926256336572759 1.3678397179355959 Si
atom 1.1866045401498688 4.0377418889169059 4.0815051927939798 Si
atom 4.0384257234797651 1.4160650458726369 3.9748398662987565 Si
atom 4.0115927392408341 4.0777175541774708 1.3124021090373554 Si
