#=======================================================
# FHI-aims file: geometry.in.supercell
# Created using the Atomic Simulation Environment (ASE)
# Mon Jun  9 19:02:30 2025

# Additional information:
#  Number of atoms:     64
#=======================================================
lattice_vector 10.8176651769019987 0.0000000001279989 0.0000000002739995 
lattice_vector 0.0000000001259997 10.8176651485879987 0.0000000002060005 
lattice_vector 0.0000000002740004 0.0000000002040004 10.8176651484619999 
atom 0.0000000000649060 0.0000000000730192 0.0000000000351574 Si
atom 0.0000000001649060 2.7044162872710187 2.7044162872021578 Si
atom 0.0000000002649060 5.4088325744690184 5.4088325743691570 Si
atom 0.0000000003649060 8.1132488616670191 8.1132488615361567 Si
atom 2.7044162943589058 0.0000000001560191 2.7044162872191575 Si
atom 2.7044162944589054 2.7044162873540185 5.4088325743861567 Si
atom 2.7044162945589059 5.4088325745520178 8.1132488615531564 Si
atom 2.7044162943849051 8.1132488615460172 0.0000000002581560 Si
atom 5.4088325886529054 0.0000000002390189 5.4088325744031565 Si
atom 5.4088325887529054 2.7044162874370183 8.1132488615701561 Si
atom 5.4088325885789041 5.4088325744310177 0.0000000002751557 Si
atom 5.4088325886789042 8.1132488616290175 2.7044162874421560 Si
atom 8.1132488829469036 0.0000000003220187 8.1132488615871559 Si
atom 8.1132488827729041 2.7044162873160178 0.0000000002921579 Si
atom 8.1132488828729041 5.4088325745140171 2.7044162874591557 Si
atom 8.1132488829729041 8.1132488617120178 5.4088325746261559 Si
atom 2.7044162943219052 2.7044162872520183 0.0000000001551574 Si
atom 2.7044162944219057 5.4088325744500176 2.7044162873221578 Si
atom 2.7044162945219052 8.1132488616480174 5.4088325744891570 Si
atom 2.7044162944959060 0.0000000002580185 8.1132488614501561 Si
atom 5.4088325886159048 2.7044162873350182 2.7044162873391575 Si
atom 5.4088325887159048 5.4088325745330179 5.4088325745061567 Si
atom 5.4088325888159048 8.1132488617310177 8.1132488616731564 Si
atom 5.4088325885159048 0.0000000001370180 0.0000000001721555 Si
atom 8.1132488829099039 2.7044162874180180 5.4088325745231565 Si
atom 8.1132488830099039 5.4088325746160173 8.1132488616901561 Si
atom 8.1132488828359044 8.1132488616100176 0.0000000003951557 Si
atom 8.1132488828099039 0.0000000002200178 2.7044162873561555 Si
atom 0.0000000003019072 2.7044162873730189 8.1132488614331564 Si
atom 0.0000000001279068 5.4088325743670183 0.0000000001381584 Si
atom 0.0000000002279068 8.1132488615650189 2.7044162873051563 Si
atom 0.0000000002019071 0.0000000001750187 5.4088325742661558 Si
atom 1.3522081470978400 1.3522081435419795 1.3522081435825901 Si
atom 1.3522081471978400 4.0566244307399799 4.0566244307495900 Si
atom 1.3522081472978400 6.7610407179379797 6.7610407179165906 Si
atom 1.3522081473978400 9.4654570051359794 9.4654570050835911 Si
atom 4.0566244413918398 1.3522081436249793 4.0566244307665897 Si
atom 4.0566244414918406 4.0566244308229802 6.7610407179335903 Si
atom 4.0566244415918398 6.7610407180209799 9.4654570051005908 Si
atom 4.0566244414178394 9.4654570050149776 1.3522081438055897 Si
atom 6.7610407356858406 1.3522081437079791 6.7610407179505891 Si
atom 6.7610407357858406 4.0566244309059796 9.4654570051175906 Si
atom 6.7610407356118394 6.7610407178999790 1.3522081438225895 Si
atom 6.7610407357118394 9.4654570050979796 4.0566244309895891 Si
atom 9.4654570299798380 1.3522081437909790 9.4654570051345903 Si
atom 9.4654570298058385 4.0566244307849795 1.3522081438395892 Si
atom 9.4654570299058385 6.7610407179829792 4.0566244310065889 Si
atom 9.4654570300058385 9.4654570051809781 6.7610407181735894 Si
atom 4.0566244413548400 4.0566244307209791 1.3522081437025901 Si
atom 4.0566244414548391 6.7610407179189798 4.0566244308695900 Si
atom 4.0566244415548400 9.4654570051169777 6.7610407180365906 Si
atom 4.0566244415288404 1.3522081437269788 9.4654570049975906 Si
atom 6.7610407356488400 4.0566244308039794 4.0566244308865897 Si
atom 6.7610407357488400 6.7610407180019791 6.7610407180535903 Si
atom 6.7610407358488400 9.4654570051999798 9.4654570052205909 Si
atom 6.7610407355488400 1.3522081436059783 1.3522081437195892 Si
atom 9.4654570299428382 4.0566244308869788 6.7610407180705892 Si
atom 9.4654570300428382 6.7610407180849794 9.4654570052375906 Si
atom 9.4654570298688387 9.4654570050789779 1.3522081439425895 Si
atom 9.4654570298428382 1.3522081436889781 4.0566244309035886 Si
atom 1.3522081473348406 4.0566244308419801 9.4654570049805908 Si
atom 1.3522081471608403 6.7610407178359795 1.3522081436855897 Si
atom 1.3522081472608403 9.4654570050339792 4.0566244308525894 Si
atom 1.3522081472348406 1.3522081436439790 6.7610407178135894 Si
