#=======================================================
# FHI-aims file: geometry.in.primitive
# Created using the Atomic Simulation Environment (ASE)
# Mon Jun  9 19:02:30 2025

# Additional information:
#  Number of atoms:     2
#=======================================================
lattice_vector 0.0000000001000000 2.7044162871980002 2.7044162871670001 
lattice_vector 2.7044162942940000 0.0000000000830000 2.7044162871839998 
lattice_vector 2.7044162942569998 2.7044162871789998 0.0000000001200000 
atom 0.0000000000649060 0.0000000000730192 0.0000000000351574 Si
atom 1.3522081470978402 1.3522081435419797 1.3522081435825901 Si
