#=======================================================
# FHI-aims file: ./geometry.in
# Created using the Atomic Simulation Environment (ASE)
# Tue Jun 10 14:21:33 2025
#=======================================================
lattice_vector 5.4088325884509993 0.0000000000639995 0.0000000001369997 
lattice_vector 0.0000000000629998 5.4088325742939993 0.0000000001030003 
lattice_vector 0.0000000001370002 0.0000000001020002 5.4088325742309999 
atom_frac -0.0104299322854544 0.0027402383477745 -0.0012824433481396 Si
atom_frac 0.0008339166393026 0.5142766451971162 0.4833772072889748 Si
atom_frac 0.5100902882578296 -0.0046197889171761 0.5012332700673536 Si
atom_frac 0.5028137358489100 0.4997593534215836 0.0157800688790154 Si
atom_frac 0.2571548446199444 0.2460748105522283 0.2493090060255889 Si
atom_frac 0.2487549514614254 0.7310668343676797 0.7489692852907076 Si
atom_frac 0.7486611406350113 0.2517799785895145 0.7453381314504053 Si
atom_frac 0.7421210548330781 0.7589219284097433 0.2572754743465283 Si
