#=======================================================
# FHI-aims file: ./geometry.in
# Created using the Atomic Simulation Environment (ASE)
# Tue Jun 10 15:10:06 2025
#=======================================================
lattice_vector 5.4088325884509993 0.0000000000639995 0.0000000001369997 
lattice_vector 0.0000000000629998 5.4088325742939993 0.0000000001030003 
lattice_vector 0.0000000001370002 0.0000000001020002 5.4088325742309999 
atom_frac 0.0094479840331153 0.0194176130076234 0.0041094788868058 Si
atom_frac -0.0016656761809138 0.4880381786349253 0.4902469976431812 Si
atom_frac 0.5135836070144094 -0.0095322534265000 0.5247383990405472 Si
atom_frac 0.4832178538524218 0.5020666276121080 -0.0022041447742534 Si
atom_frac 0.2680479157080948 0.2018908559671227 0.2548123863122422 Si
atom_frac 0.2250876734237375 0.7241453783992889 0.7421761215376302 Si
atom_frac 0.7670135101874487 0.2834353462054830 0.7498934892332908 Si
atom_frac 0.7352671319772149 0.7905382536004210 0.2362272721211761 Si
