#=======================================================
# FHI-aims file: geometry.in
# Created using the Atomic Simulation Environment (ASE)
# Tue Jun 10 15:05:46 2025
#=======================================================
lattice_vector 5.4088325884509993 0.0000000000639995 0.0000000001369997 
lattice_vector 0.0000000000629998 5.4088325742939993 0.0000000001030003 
lattice_vector 0.0000000001370002 0.0000000001020002 5.4088325742309999 
atom -0.0321884607113244 -0.1069291521020729 0.1001713745335456 Si
atom -0.0941644923776917 2.7534835834257518 2.7340772900239902 Si
atom 2.6831834178977889 0.0869496973696402 2.6347433611469482 Si
atom 2.8264354146702626 2.6722529608763468 0.0228605390166877 Si
atom 1.2450598710076777 1.4412083846105030 1.3119125523838748 Si
atom 1.3323612583161835 4.0510406151482821 4.0365286105138649 Si
atom 4.1636917033778653 1.2774364961923277 3.9959240288857214 Si
atom 4.1021190537067289 4.0510551378674728 1.3902799669100800 Si
