#=======================================================
# FHI-aims file: ./geometry.in
# Created using the Atomic Simulation Environment (ASE)
# Mon Jun  9 18:50:19 2025
#=======================================================
lattice_vector 0.0000000002000000 5.4088325743960004 5.4088325743340002 
lattice_vector 5.4088325885880000 0.0000000001660000 5.4088325743679997 
lattice_vector 5.4088325885139996 5.4088325743579997 0.0000000002400000 
atom_frac 0.0013073186748309 0.0000000000025000 0.0000000000095000 Si
atom_frac 0.5000000000040000 0.0000000000025001 0.0000000000094999 Si
atom_frac 0.0000000000039999 0.5000000000024999 0.0000000000095000 Si
atom_frac 0.5000000000040001 0.5000000000025002 0.0000000000094998 Si
atom_frac 0.0000000000040000 0.0000000000025001 0.5000000000095000 Si
atom_frac 0.5000000000040000 0.0000000000025002 0.5000000000094998 Si
atom_frac 0.0000000000039999 0.5000000000025000 0.5000000000095000 Si
atom_frac 0.5000000000039999 0.5000000000025001 0.5000000000094997 Si
atom_frac 0.1249999999960000 0.1249999999975001 0.1249999999904999 Si
atom_frac 0.6249999999960001 0.1249999999975002 0.1249999999904999 Si
atom_frac 0.1249999999960000 0.6249999999975000 0.1249999999904999 Si
atom_frac 0.6249999999960002 0.6249999999975002 0.1249999999904997 Si
atom_frac 0.1249999999959999 0.1249999999975001 0.6249999999904998 Si
atom_frac 0.6249999999960001 0.1249999999975000 0.6249999999904999 Si
atom_frac 0.1249999999960000 0.6249999999975002 0.6249999999904999 Si
atom_frac 0.6249999999960001 0.6249999999975001 0.6249999999904998 Si
