#=======================================================
# FHI-aims file: geometry.in.supercell.0400K.028
# Created using the Atomic Simulation Environment (ASE)
# Tue Jun 10 14:20:52 2025

# Additional information:
#  created from force constants
#  T = 400.0 K
#  quantum:             True
#  deterministic:       False
#  plus_minus:          False
#  gauge_eigenvectors:  False
#  Random seed:         1390219207
#  Sample number:       29
#  Harmonic E_pot:        0.311eV (300.57K)
#=======================================================
lattice_vector 5.4088325884509993 0.0000000000639995 0.0000000001369997 
lattice_vector 0.0000000000629998 5.4088325742939993 0.0000000001030003 
lattice_vector 0.0000000001370002 0.0000000001020002 5.4088325742309999 
atom -0.0113991077360445 0.0102326035923293 -0.1145264630060101 Si
    velocity -4.5538533795198770 5.0210025994617755 0.7374821264683517
atom -0.0337474063698711 2.7670839711830992 2.7083613632771382 Si
    velocity -1.1916039184627878 4.4382499889569491 0.9393968077151945
atom 2.5965745945274161 -0.0170047050110817 2.6434172226508430 Si
    velocity -2.6831197743493385 -4.0943775996454006 -6.9792251958741378
atom 2.8151128335898381 2.6934761647968761 0.1269065120427752 Si
    velocity 3.1284163760860824 3.1425544213644376 0.9734602369074679
atom 1.2563743086755852 1.3318174213402383 1.3259618696538729 Si
    velocity -1.8519885008924084 -3.0836487119552198 4.2677788957654528
atom 1.4523790245439423 3.9684828142713138 4.1171778729916850 Si
    velocity 3.9298959482262217 -3.4829654489864490 3.3896639086556930
atom 4.0700247168775343 1.2689447843213912 4.0694651371647002 Si
    velocity 4.2519924146836132 2.5920782912161933 -2.0290169634169661
atom 4.0811788017311006 4.2034646687655304 1.3497342086339377 Si
    velocity -1.0297391657715040 -4.5328935404122843 -1.2995398162210552
