#=======================================================
# FHI-aims file: geometry.in.supercell.0400K.005
# Created using the Atomic Simulation Environment (ASE)
# Tue Jun 10 14:20:52 2025

# Additional information:
#  created from force constants
#  T = 400.0 K
#  quantum:             True
#  deterministic:       False
#  plus_minus:          False
#  gauge_eigenvectors:  False
#  Random seed:         1390219207
#  Sample number:       6
#  Harmonic E_pot:        0.383eV (370.65K)
#=======================================================
lattice_vector 5.4088325884509993 0.0000000000639995 0.0000000001369997 
lattice_vector 0.0000000000629998 5.4088325742939993 0.0000000001030003 
lattice_vector 0.0000000001370002 0.0000000001020002 5.4088325742309999 
atom -0.0809750967742149 0.0691139357016596 0.1308450307115224 Si
    velocity -0.6090488851266426 0.9037796898704885 1.4533859152087891
atom 0.0356177160643722 2.5505007974671368 2.7960556068720455 Si
    velocity -6.1823525405374555 -2.5247263348216578 -2.5891448170397413
atom 2.7035880485771271 -0.0084716474053036 2.6141522826478516 Si
    velocity 2.1330177232443601 -5.6021537769604350 0.9669284353475571
atom 2.7647282893048004 2.8391015793736170 -0.0311758386598663 Si
    velocity -2.5381686861170230 1.4315950737968286 -6.3067979713774980
atom 1.4435365238973579 1.3663405381775433 1.2046269949138018 Si
    velocity 7.1470545133150063 3.7000607416906504 -0.4614027149324579
atom 1.2128793864623346 4.1400067028375656 3.9974478163542631 Si
    velocity 0.0718386201286611 1.8316382315070219 5.8023047221016206
atom 4.0339006267259325 1.3181374005522315 4.0797087521692497 Si
    velocity 3.0849784701250895 -1.6623742947955524 -2.2772382659486170
atom 4.1132222717355900 3.9517684165707561 1.4348370784121891 Si
    velocity -3.1073192150319966 1.9221806697126556 3.4119646966403461
