#=======================================================
# FHI-aims file: geometry.in.supercell.0400K.023
# Created using the Atomic Simulation Environment (ASE)
# Tue Jun 10 14:20:52 2025

# Additional information:
#  created from force constants
#  T = 400.0 K
#  quantum:             True
#  deterministic:       False
#  plus_minus:          False
#  gauge_eigenvectors:  False
#  Random seed:         1390219207
#  Sample number:       24
#  Harmonic E_pot:        0.556eV (537.87K)
#=======================================================
lattice_vector 5.4088325884509993 0.0000000000639995 0.0000000001369997 
lattice_vector 0.0000000000629998 5.4088325742939993 0.0000000001030003 
lattice_vector 0.0000000001370002 0.0000000001020002 5.4088325742309999 
atom -0.1003946285553425 -0.0487872672972709 0.0147135463943101 Si
    velocity 8.0490667044961448 -2.5863944072458791 4.9265538921098244
atom -0.0064945592050131 2.7165276666670306 2.6237466797537294 Si
    velocity 2.6098167071496721 1.3116854662505852 -2.3186092798670939
atom 2.6684665459443764 0.0992794656536159 2.6404504200565477 Si
    velocity -6.1436397089737502 -2.5915782366286488 1.9955706162838251
atom 2.7446253715603945 2.7498924930303077 0.0971945797107015 Si
    velocity 1.6787983746611814 0.1368956830919031 -1.5313681460859563
atom 1.3317792126703456 1.2377491723420175 1.2107874478019851 Si
    velocity -4.8629669801819189 -1.8497373195369651 3.2437383029960292
atom 1.3884608255940838 4.0245958571572258 4.0367077357793146 Si
    velocity 1.5776837684437592 4.3836797425776837 -7.1039770697597096
atom 4.0518651773041139 1.4264521042874816 4.0933450229599835 Si
    velocity -0.8267430594963953 -0.0159894286361057 -1.0829747479230973
atom 4.1481898203737435 4.0207882312559304 1.5095522909552330 Si
    velocity -2.0820158060986951 1.2114385001274277 1.8710664322461781
