#=======================================================
# FHI-aims file: geometry.in.supercell.0400K.019
# Created using the Atomic Simulation Environment (ASE)
# Tue Jun 10 14:20:52 2025

# Additional information:
#  created from force constants
#  T = 400.0 K
#  quantum:             True
#  deterministic:       False
#  plus_minus:          False
#  gauge_eigenvectors:  False
#  Random seed:         1390219207
#  Sample number:       20
#  Harmonic E_pot:        0.626eV (605.26K)
#=======================================================
lattice_vector 5.4088325884509993 0.0000000000639995 0.0000000001369997 
lattice_vector 0.0000000000629998 5.4088325742939993 0.0000000001030003 
lattice_vector 0.0000000001370002 0.0000000001020002 5.4088325742309999 
atom -0.0385338477406639 -0.0326236876920237 0.0612752118446206 Si
    velocity 2.9773511119692668 -5.1031900018609555 -0.9594606959483852
atom 0.1133602053758539 2.6379996917443527 2.6848995291372661 Si
    velocity -4.9177771483502646 -2.1102537258852454 0.6333745950241392
atom 2.7446761808630789 0.0166728926858688 2.6127478095835612 Si
    velocity 4.8530539252152698 -2.7326998313109980 0.1237050432319993
atom 2.5484262651611096 2.7779939420580524 -0.0357030514087794 Si
    velocity 4.3054715779153021 1.4465078654737527 -0.3067311225026728
atom 1.3647940892414969 1.2578885727035098 1.2828266365263759 Si
    velocity 1.9993400696068973 2.6480551751900725 -4.8414007946903075
atom 1.3469793865536919 4.2615734189299879 4.0105889260085679 Si
    velocity -3.1016977336745524 0.0502590716634457 5.9288137372717964
atom 3.9894238449223489 1.2813116844051180 4.1554474716733694 Si
    velocity -0.8305513396114012 3.7274697046674352 -4.8373053888544284
atom 4.1573716414569999 4.0256812085667422 1.4544151900447522 Si
    velocity -5.2851904630705180 2.0738517420624931 4.2590046264678580
