#=======================================================
# FHI-aims file: geometry.in.supercell.0400K.000
# Created using the Atomic Simulation Environment (ASE)
# Tue Jun 10 14:20:52 2025

# Additional information:
#  created from force constants
#  T = 400.0 K
#  quantum:             True
#  deterministic:       False
#  plus_minus:          False
#  gauge_eigenvectors:  False
#  Random seed:         1390219207
#  Sample number:       1
#  Harmonic E_pot:        0.444eV (429.72K)
#=======================================================
lattice_vector 5.4088325884509993 0.0000000000639995 0.0000000001369997 
lattice_vector 0.0000000000629998 5.4088325742939993 0.0000000001030003 
lattice_vector 0.0000000001370002 0.0000000001020002 5.4088325742309999 
atom 0.0880981476930855 -0.0022240825035414 -0.0230318297897927 Si
    velocity -2.9279920713703218 -3.7444088171160836 2.9619709525003444
atom -0.0307663305369618 2.6713230743015752 2.6201004842069469 Si
    velocity -3.0768696986229274 1.8410217831218956 3.7036520862430389
atom 2.7509482320311434 0.0461147019888634 2.6863090464576058 Si
    velocity 2.9513755653447573 -4.1008722107867337 1.2235685508006233
atom 2.6067899722970056 2.7476957223166600 0.0823905882040938 Si
    velocity -8.2637344915677637 6.5974516678354673 -1.9670299786228325
atom 1.2288953845077666 1.3298640387975345 1.3559621237023740 Si
    velocity 6.5089065922674312 0.0701282843471739 2.5885915104766748
atom 1.4377379662016014 4.0602934516244469 4.0112275592468114 Si
    velocity 1.5704941167167092 -0.0247924962554315 -2.2782852327248340
atom 4.0803695767722390 1.2701420228040896 4.1230332303488684 Si
    velocity 1.4695901303569054 -0.9361656595788302 -3.8750919149278005
atom 4.0644248169951238 4.1032887939043965 1.3705065210265928 Si
    velocity 1.7682298568752099 0.2976374484325420 -2.3573759737452127
