#=======================================================
# FHI-aims file: geometry.in
# Created using the Atomic Simulation Environment (ASE)
# Tue Jun 10 14:21:07 2025
#=======================================================
lattice_vector 5.4088325884509993 0.0000000000639995 0.0000000001369997 
lattice_vector 0.0000000000629998 5.4088325742939993 0.0000000001030003 
lattice_vector 0.0000000001370002 0.0000000001020002 5.4088325742309999 
atom -0.0753110653640316 -0.0492883357420384 -0.0795094810623208 Si
atom 0.0557846606465275 2.6821863431259936 2.7373601570267492 Si
atom 2.7947904435989739 0.0217566456348616 2.7526631993013044 Si
atom 2.6095247089644311 2.7234793056043940 0.0232808287164535 Si
atom 1.3214848683588929 1.3075600332929722 1.3195027199741631 Si
atom 1.3689108754410757 4.0845020085600767 3.9971865047987505 Si
atom 4.0378810625389745 1.4040500952593775 4.0839646005945465 Si
atom 4.1134322117013635 4.0522516277216676 1.3920491940583986 Si
