#=======================================================
# FHI-aims file: ./geometry.in
# Created using the Atomic Simulation Environment (ASE)
# Tue Jun 10 14:40:47 2025
#=======================================================
lattice_vector 5.4088325884509993 0.0000000000639995 0.0000000001369997 
lattice_vector 0.0000000000629998 5.4088325742939993 0.0000000001030003 
lattice_vector 0.0000000001370002 0.0000000001020002 5.4088325742309999 
atom_frac -0.0003919738492337 0.0010884996069235 0.0175822733837250 Si
atom_frac 0.0005521535390892 0.4927837038649480 0.4815418040246000 Si
atom_frac 0.4987017767936739 0.0139082856932626 0.5103176490471559 Si
atom_frac 0.4914394824528001 0.5100471631121526 -0.0161570609068997 Si
atom_frac 0.2624834230191882 0.2373816960969487 0.2450996793926835 Si
atom_frac 0.2329471930681318 0.7604898296031263 0.7585481622351562 Si
atom_frac 0.7725550531895401 0.2496594472015745 0.7462165862833393 Si
atom_frac 0.7417128917638137 0.7346413747754200 0.2568509065417157 Si
