#=======================================================
# FHI-aims file: geometry.in
# Created using the Atomic Simulation Environment (ASE)
# Tue Jun 10 14:59:17 2025
#=======================================================
lattice_vector 5.4088325884509993 0.0000000000639995 0.0000000001369997 
lattice_vector 0.0000000000629998 5.4088325742939993 0.0000000001030003 
lattice_vector 0.0000000001370002 0.0000000001020002 5.4088325742309999 
atom 0.0790350903596585 0.0570372699456536 0.0129386650327594 Si
atom -0.0500003131367482 2.6984624067029186 2.5719850281137711 Si
atom 2.6157853125077866 -0.0739433103194970 2.7808135876557563 Si
atom 2.6852232548648765 2.7410437613785192 -0.0008405959347872 Si
atom 1.4432980213099149 1.3669644122739322 1.3364175011698340 Si
atom 1.2384030142336386 3.9027957840167202 4.0296678697815329 Si
atom 4.1846201710611197 1.4530531167388612 4.1100060327303281 Si
atom 4.0301332145571438 4.0810842826099210 1.3855096348674178 Si
