#=======================================================
# FHI-aims file: geometry.in
# Created using the Atomic Simulation Environment (ASE)
# Tue Jun 10 14:48:32 2025
#=======================================================
lattice_vector 5.4088325884509993 0.0000000000639995 0.0000000001369997 
lattice_vector 0.0000000000629998 5.4088325742939993 0.0000000001030003 
lattice_vector 0.0000000001370002 0.0000000001020002 5.4088325742309999 
atom 0.0880981476930855 -0.0022240825035414 -0.0230318297897927 Si
atom -0.0307663305369618 2.6713230743015752 2.6201004842069469 Si
atom 2.7509482320311434 0.0461147019888634 2.6863090464576058 Si
atom 2.6067899722970056 2.7476957223166600 0.0823905882040938 Si
atom 1.2288953845077666 1.3298640387975345 1.3559621237023740 Si
atom 1.4377379662016014 4.0602934516244469 4.0112275592468114 Si
atom 4.0803695767722390 1.2701420228040896 4.1230332303488684 Si
atom 4.0644248169951238 4.1032887939043965 1.3705065210265928 Si
