#=======================================================
# FHI-aims file: ./geometry.in
# Created using the Atomic Simulation Environment (ASE)
# Tue Jun 10 15:05:21 2025
#=======================================================
lattice_vector 5.4088325884509993 0.0000000000639995 0.0000000001369997 
lattice_vector 0.0000000000629998 5.4088325742939993 0.0000000001030003 
lattice_vector 0.0000000001370002 0.0000000001020002 5.4088325742309999 
atom_frac 0.0064704064622448 0.0047608737821672 0.0015759582582409 Si
atom_frac -0.0156579491795491 0.5091032723930546 0.4940712550234500 Si
atom_frac 0.5081562624475808 0.0004775873209992 0.4921304462154341 Si
atom_frac 0.5102444245495359 0.4987700526420690 -0.0081509270878137 Si
atom_frac 0.2502334423072609 0.2438185699444228 0.2675026536663346 Si
atom_frac 0.2478270948766500 0.7620386023333346 0.7532443715464938 Si
atom_frac 0.7391689791626324 0.2544453298813990 0.7495150447279831 Si
atom_frac 0.7535573393965175 0.7265857116681880 0.2501111976493831 Si
