#=======================================================
# FHI-aims file: geometry.in
# Created using the Atomic Simulation Environment (ASE)
# Tue Jun 10 15:10:05 2025
#=======================================================
lattice_vector 5.4088325884509993 0.0000000000639995 0.0000000001369997 
lattice_vector 0.0000000000629998 5.4088325742939993 0.0000000001030003 
lattice_vector 0.0000000001370002 0.0000000001020002 5.4088325742309999 
atom 0.0511025639352648 0.1050266177516923 0.0222274832693642 Si
atom -0.0090093635112229 2.6397167981495966 2.6516639303214267 Si
atom 2.7778877505850379 -0.0515583627532865 2.8382221457497159 Si
atom 2.6136444752696599 2.7155943299250054 -0.0119218499353891 Si
atom 1.4498263017959385 1.0919938382502172 1.3782375354607064 Si
atom 1.2174615434202265 3.9167811113006357 4.0143063820945839 Si
atom 4.1486476698046566 1.5330543333880913 4.0560483319030416 Si
atom 3.9769368247374293 4.2758890573705992 1.2777137645529046 Si
