#=======================================================
# FHI-aims file: ./geometry.in
# Created using the Atomic Simulation Environment (ASE)
# Mon Jun  9 18:45:45 2025
#=======================================================
lattice_vector 5.4088325884509993 0.0000000000639995 0.0000000001369997 
lattice_vector 0.0000000000629998 5.4088325742939993 0.0000000001030003 
lattice_vector 0.0000000001370002 0.0000000001020002 5.4088325742309999 
atom_frac 0.0018488278018177 0.0000000000135000 0.0000000000065000 Si
atom_frac 0.0000000000120000 0.5000000000135000 0.5000000000065000 Si
atom_frac 0.5000000000120000 0.0000000000135000 0.5000000000065000 Si
atom_frac 0.5000000000120000 0.5000000000135000 0.0000000000064999 Si
atom_frac 0.2499999999880000 0.2499999999865000 0.2499999999935000 Si
atom_frac 0.2499999999880000 0.7499999999864999 0.7499999999935000 Si
atom_frac 0.7499999999879999 0.2499999999865000 0.7499999999935000 Si
atom_frac 0.7499999999879999 0.7499999999865001 0.2499999999934999 Si
