#=======================================================
# FHI-aims file: ./geometry.in
# Created using the Atomic Simulation Environment (ASE)
# Wed Aug  5 17:38:33 2020
#=======================================================
lattice_vector 32.5110330880919989 -0.0000000001439983 0.0000000001320051 
lattice_vector -0.0000000001439983 32.5110326348999976 0.0000000000239949 
lattice_vector 0.0000000001320008 0.0000000000240019 32.5110326352959973 
atom_frac 0.0003075878887855 0.0000000000003333 0.9999999999982500 Si
atom_frac 0.0000000000009167 0.0833333333336667 0.0833333333315833 Si
atom_frac 0.0000000000009167 0.1666666666670000 0.1666666666649167 Si
atom_frac 0.0000000000009167 0.2500000000003333 0.2499999999982500 Si
atom_frac 0.0000000000009166 0.3333333333336668 0.3333333333315832 Si
atom_frac 0.0000000000009166 0.4166666666670000 0.4166666666649166 Si
atom_frac 0.0000000000009166 0.5000000000003333 0.4999999999982499 Si
atom_frac 0.0000000000009166 0.5833333333336667 0.5833333333315833 Si
atom_frac 0.0000000000009166 0.6666666666670000 0.6666666666649165 Si
atom_frac 0.0000000000009166 0.7500000000003334 0.7499999999982500 Si
atom_frac 0.0000000000009166 0.8333333333336667 0.8333333333315833 Si
atom_frac 0.0000000000009166 0.9166666666670000 0.9166666666649167 Si
atom_frac 0.0833333333342500 0.0000000000003333 0.0833333333315833 Si
atom_frac 0.0833333333342500 0.0833333333336667 0.1666666666649167 Si
atom_frac 0.0833333333342500 0.1666666666670000 0.2499999999982500 Si
atom_frac 0.0833333333342500 0.2500000000003334 0.3333333333315832 Si
atom_frac 0.0833333333342500 0.3333333333336667 0.4166666666649166 Si
atom_frac 0.0833333333342500 0.4166666666670000 0.4999999999982500 Si
atom_frac 0.0833333333342499 0.5000000000003333 0.5833333333315833 Si
atom_frac 0.0833333333342500 0.5833333333336667 0.6666666666649164 Si
atom_frac 0.0833333333342499 0.6666666666670000 0.7499999999982498 Si
atom_frac 0.0833333333342499 0.7500000000003336 0.8333333333315832 Si
atom_frac 0.0833333333342499 0.8333333333336668 0.9166666666649164 Si
atom_frac 0.0833333333342499 0.9166666666669999 0.9999999999982500 Si
atom_frac 0.1666666666675833 0.0000000000003333 0.1666666666649167 Si
atom_frac 0.1666666666675833 0.0833333333336667 0.2499999999982500 Si
atom_frac 0.1666666666675833 0.1666666666670000 0.3333333333315832 Si
atom_frac 0.1666666666675833 0.2500000000003333 0.4166666666649166 Si
atom_frac 0.1666666666675833 0.3333333333336667 0.4999999999982499 Si
atom_frac 0.1666666666675833 0.4166666666670001 0.5833333333315833 Si
atom_frac 0.1666666666675833 0.5000000000003334 0.6666666666649165 Si
atom_frac 0.1666666666675833 0.5833333333336665 0.7499999999982497 Si
atom_frac 0.1666666666675833 0.6666666666669999 0.8333333333315832 Si
atom_frac 0.1666666666675833 0.7500000000003334 0.9166666666649167 Si
atom_frac 0.1666666666675833 0.8333333333336667 0.9999999999982500 Si
atom_frac 0.1666666666675833 0.9166666666670000 0.0833333333315833 Si
atom_frac 0.2500000000009167 0.0000000000003333 0.2499999999982500 Si
atom_frac 0.2500000000009166 0.0833333333336667 0.3333333333315832 Si
atom_frac 0.2500000000009165 0.1666666666670001 0.4166666666649166 Si
atom_frac 0.2500000000009166 0.2500000000003333 0.4999999999982499 Si
atom_frac 0.2500000000009167 0.3333333333336668 0.5833333333315832 Si
atom_frac 0.2500000000009166 0.4166666666670000 0.6666666666649164 Si
atom_frac 0.2500000000009166 0.5000000000003333 0.7499999999982498 Si
atom_frac 0.2500000000009167 0.5833333333336668 0.8333333333315831 Si
atom_frac 0.2500000000009165 0.6666666666669999 0.9166666666649163 Si
atom_frac 0.2500000000009166 0.7500000000003333 0.9999999999982500 Si
atom_frac 0.2500000000009166 0.8333333333336667 0.0833333333315833 Si
atom_frac 0.2500000000009166 0.9166666666670000 0.1666666666649166 Si
atom_frac 0.3333333333342499 0.0000000000003333 0.3333333333315832 Si
atom_frac 0.3333333333342499 0.0833333333336667 0.4166666666649166 Si
atom_frac 0.3333333333342499 0.1666666666670001 0.4999999999982499 Si
atom_frac 0.3333333333342499 0.2500000000003334 0.5833333333315833 Si
atom_frac 0.3333333333342499 0.3333333333336667 0.6666666666649165 Si
atom_frac 0.3333333333342499 0.4166666666670000 0.7499999999982496 Si
atom_frac 0.3333333333342499 0.5000000000003333 0.8333333333315832 Si
atom_frac 0.3333333333342498 0.5833333333336667 0.9166666666649166 Si
atom_frac 0.3333333333342498 0.6666666666669999 0.9999999999982497 Si
atom_frac 0.3333333333342498 0.7500000000003335 0.0833333333315833 Si
atom_frac 0.3333333333342499 0.8333333333336669 0.1666666666649166 Si
atom_frac 0.3333333333342497 0.9166666666670000 0.2499999999982498 Si
atom_frac 0.4166666666675833 0.0000000000003333 0.4166666666649166 Si
atom_frac 0.4166666666675833 0.0833333333336667 0.4999999999982499 Si
atom_frac 0.4166666666675833 0.1666666666670000 0.5833333333315833 Si
atom_frac 0.4166666666675833 0.2500000000003333 0.6666666666649164 Si
atom_frac 0.4166666666675833 0.3333333333336667 0.7499999999982500 Si
atom_frac 0.4166666666675833 0.4166666666670000 0.8333333333315831 Si
atom_frac 0.4166666666675833 0.5000000000003333 0.9166666666649164 Si
atom_frac 0.4166666666675833 0.5833333333336664 0.9999999999982497 Si
atom_frac 0.4166666666675832 0.6666666666669999 0.0833333333315833 Si
atom_frac 0.4166666666675833 0.7500000000003334 0.1666666666649168 Si
atom_frac 0.4166666666675833 0.8333333333336668 0.2499999999982498 Si
atom_frac 0.4166666666675832 0.9166666666670000 0.3333333333315832 Si
atom_frac 0.5000000000009167 0.0000000000003333 0.4999999999982500 Si
atom_frac 0.5000000000009167 0.0833333333336667 0.5833333333315833 Si
atom_frac 0.5000000000009167 0.1666666666670000 0.6666666666649166 Si
atom_frac 0.5000000000009167 0.2500000000003333 0.7499999999982498 Si
atom_frac 0.5000000000009166 0.3333333333336667 0.8333333333315833 Si
atom_frac 0.5000000000009168 0.4166666666670000 0.9166666666649166 Si
atom_frac 0.5000000000009167 0.5000000000003333 0.9999999999982497 Si
atom_frac 0.5000000000009165 0.5833333333336667 0.0833333333315833 Si
atom_frac 0.5000000000009166 0.6666666666670000 0.1666666666649166 Si
atom_frac 0.5000000000009166 0.7500000000003334 0.2499999999982501 Si
atom_frac 0.5000000000009166 0.8333333333336665 0.3333333333315832 Si
atom_frac 0.5000000000009166 0.9166666666670000 0.4166666666649168 Si
atom_frac 0.5833333333342500 0.0000000000003333 0.5833333333315833 Si
atom_frac 0.5833333333342500 0.0833333333336667 0.6666666666649166 Si
atom_frac 0.5833333333342500 0.1666666666670000 0.7499999999982500 Si
atom_frac 0.5833333333342500 0.2500000000003333 0.8333333333315831 Si
atom_frac 0.5833333333342500 0.3333333333336667 0.9166666666649164 Si
atom_frac 0.5833333333342501 0.4166666666670000 0.9999999999982500 Si
atom_frac 0.5833333333342499 0.5000000000003333 0.0833333333315833 Si
atom_frac 0.5833333333342499 0.5833333333336667 0.1666666666649166 Si
atom_frac 0.5833333333342501 0.6666666666670000 0.2499999999982498 Si
atom_frac 0.5833333333342500 0.7500000000003335 0.3333333333315832 Si
atom_frac 0.5833333333342500 0.8333333333336668 0.4166666666649166 Si
atom_frac 0.5833333333342500 0.9166666666670000 0.4999999999982500 Si
atom_frac 0.6666666666675833 0.0000000000003333 0.6666666666649166 Si
atom_frac 0.6666666666675833 0.0833333333336667 0.7499999999982498 Si
atom_frac 0.6666666666675833 0.1666666666670000 0.8333333333315833 Si
atom_frac 0.6666666666675835 0.2500000000003333 0.9166666666649167 Si
atom_frac 0.6666666666675833 0.3333333333336668 0.9999999999982500 Si
atom_frac 0.6666666666675833 0.4166666666670001 0.0833333333315833 Si
atom_frac 0.6666666666675832 0.5000000000003334 0.1666666666649166 Si
atom_frac 0.6666666666675833 0.5833333333336665 0.2499999999982501 Si
atom_frac 0.6666666666675835 0.6666666666669998 0.3333333333315832 Si
atom_frac 0.6666666666675833 0.7500000000003334 0.4166666666649168 Si
atom_frac 0.6666666666675833 0.8333333333336667 0.4999999999982500 Si
atom_frac 0.6666666666675835 0.9166666666670000 0.5833333333315833 Si
atom_frac 0.7500000000009164 0.0000000000003333 0.7499999999982498 Si
atom_frac 0.7500000000009164 0.0833333333336667 0.8333333333315830 Si
atom_frac 0.7500000000009165 0.1666666666670001 0.9166666666649166 Si
atom_frac 0.7500000000009165 0.2500000000003334 0.9999999999982497 Si
atom_frac 0.7500000000009163 0.3333333333336668 0.0833333333315831 Si
atom_frac 0.7500000000009165 0.4166666666669999 0.1666666666649166 Si
atom_frac 0.7500000000009164 0.5000000000003334 0.2499999999982498 Si
atom_frac 0.7500000000009163 0.5833333333336667 0.3333333333315830 Si
atom_frac 0.7500000000009164 0.6666666666669999 0.4166666666649164 Si
atom_frac 0.7500000000009163 0.7500000000003335 0.4999999999982498 Si
atom_frac 0.7500000000009164 0.8333333333336667 0.5833333333315831 Si
atom_frac 0.7500000000009163 0.9166666666670000 0.6666666666649164 Si
atom_frac 0.8333333333342497 0.0000000000003333 0.8333333333315832 Si
atom_frac 0.8333333333342499 0.0833333333336666 0.9166666666649165 Si
atom_frac 0.8333333333342499 0.1666666666670000 0.9999999999982497 Si
atom_frac 0.8333333333342497 0.2500000000003334 0.0833333333315831 Si
atom_frac 0.8333333333342497 0.3333333333336666 0.1666666666649164 Si
atom_frac 0.8333333333342499 0.4166666666670000 0.2499999999982498 Si
atom_frac 0.8333333333342497 0.5000000000003332 0.3333333333315830 Si
atom_frac 0.8333333333342497 0.5833333333336667 0.4166666666649163 Si
atom_frac 0.8333333333342499 0.6666666666669999 0.4999999999982498 Si
atom_frac 0.8333333333342499 0.7500000000003335 0.5833333333315833 Si
atom_frac 0.8333333333342497 0.8333333333336669 0.6666666666649163 Si
atom_frac 0.8333333333342499 0.9166666666670003 0.7499999999982496 Si
atom_frac 0.9166666666675832 0.0000000000003333 0.9166666666649166 Si
atom_frac 0.9166666666675832 0.0833333333336666 0.9999999999982497 Si
atom_frac 0.9166666666675831 0.1666666666670000 0.0833333333315833 Si
atom_frac 0.9166666666675832 0.2500000000003333 0.1666666666649166 Si
atom_frac 0.9166666666675831 0.3333333333336667 0.2499999999982498 Si
atom_frac 0.9166666666675832 0.4166666666670001 0.3333333333315830 Si
atom_frac 0.9166666666675831 0.5000000000003333 0.4166666666649163 Si
atom_frac 0.9166666666675831 0.5833333333336667 0.4999999999982498 Si
atom_frac 0.9166666666675833 0.6666666666669999 0.5833333333315831 Si
atom_frac 0.9166666666675831 0.7500000000003334 0.6666666666649166 Si
atom_frac 0.9166666666675832 0.8333333333336667 0.7499999999982498 Si
atom_frac 0.9166666666675831 0.9166666666670001 0.8333333333315831 Si
atom_frac 0.0833333333342500 0.0833333333336667 0.9999999999982497 Si
atom_frac 0.0833333333342500 0.1666666666670000 0.0833333333315833 Si
atom_frac 0.0833333333342500 0.2500000000003333 0.1666666666649166 Si
atom_frac 0.0833333333342500 0.3333333333336667 0.2499999999982500 Si
atom_frac 0.0833333333342500 0.4166666666670000 0.3333333333315833 Si
atom_frac 0.0833333333342500 0.5000000000003333 0.4166666666649165 Si
atom_frac 0.0833333333342499 0.5833333333336665 0.4999999999982499 Si
atom_frac 0.0833333333342500 0.6666666666670000 0.5833333333315833 Si
atom_frac 0.0833333333342499 0.7500000000003335 0.6666666666649165 Si
atom_frac 0.0833333333342499 0.8333333333336670 0.7499999999982498 Si
atom_frac 0.0833333333342499 0.9166666666670000 0.8333333333315833 Si
atom_frac 0.0833333333342499 0.0000000000003333 0.9166666666649166 Si
atom_frac 0.1666666666675833 0.0833333333336667 0.0833333333315833 Si
atom_frac 0.1666666666675833 0.1666666666670000 0.1666666666649166 Si
atom_frac 0.1666666666675833 0.2500000000003333 0.2499999999982500 Si
atom_frac 0.1666666666675833 0.3333333333336667 0.3333333333315833 Si
atom_frac 0.1666666666675833 0.4166666666670001 0.4166666666649165 Si
atom_frac 0.1666666666675833 0.5000000000003333 0.4999999999982499 Si
atom_frac 0.1666666666675833 0.5833333333336664 0.5833333333315831 Si
atom_frac 0.1666666666675833 0.6666666666669999 0.6666666666649166 Si
atom_frac 0.1666666666675833 0.7500000000003333 0.7499999999982498 Si
atom_frac 0.1666666666675833 0.8333333333336669 0.8333333333315831 Si
atom_frac 0.1666666666675833 0.9166666666670000 0.9166666666649166 Si
atom_frac 0.1666666666675833 0.0000000000003333 0.9999999999982500 Si
atom_frac 0.2500000000009168 0.0833333333336667 0.1666666666649167 Si
atom_frac 0.2500000000009166 0.1666666666670000 0.2499999999982500 Si
atom_frac 0.2500000000009166 0.2500000000003333 0.3333333333315833 Si
atom_frac 0.2500000000009167 0.3333333333336668 0.4166666666649165 Si
atom_frac 0.2500000000009167 0.4166666666670000 0.4999999999982499 Si
atom_frac 0.2500000000009167 0.5000000000003333 0.5833333333315833 Si
atom_frac 0.2500000000009167 0.5833333333336665 0.6666666666649165 Si
atom_frac 0.2500000000009166 0.6666666666670001 0.7499999999982497 Si
atom_frac 0.2500000000009166 0.7500000000003333 0.8333333333315831 Si
atom_frac 0.2500000000009165 0.8333333333336667 0.9166666666649166 Si
atom_frac 0.2500000000009165 0.9166666666670000 0.9999999999982500 Si
atom_frac 0.2500000000009166 0.0000000000003333 0.0833333333315833 Si
atom_frac 0.3333333333342499 0.0833333333336667 0.2499999999982500 Si
atom_frac 0.3333333333342498 0.1666666666670001 0.3333333333315833 Si
atom_frac 0.3333333333342498 0.2500000000003334 0.4166666666649165 Si
atom_frac 0.3333333333342499 0.3333333333336667 0.4999999999982499 Si
atom_frac 0.3333333333342499 0.4166666666670000 0.5833333333315830 Si
atom_frac 0.3333333333342499 0.5000000000003333 0.6666666666649166 Si
atom_frac 0.3333333333342499 0.5833333333336665 0.7499999999982498 Si
atom_frac 0.3333333333342499 0.6666666666670001 0.8333333333315830 Si
atom_frac 0.3333333333342497 0.7500000000003334 0.9166666666649165 Si
atom_frac 0.3333333333342498 0.8333333333336669 0.9999999999982497 Si
atom_frac 0.3333333333342497 0.9166666666670000 0.0833333333315833 Si
atom_frac 0.3333333333342499 0.0000000000003333 0.1666666666649166 Si
atom_frac 0.4166666666675833 0.0833333333336667 0.3333333333315833 Si
atom_frac 0.4166666666675832 0.1666666666670000 0.4166666666649165 Si
atom_frac 0.4166666666675832 0.2500000000003333 0.4999999999982499 Si
atom_frac 0.4166666666675833 0.3333333333336667 0.5833333333315833 Si
atom_frac 0.4166666666675833 0.4166666666670001 0.6666666666649165 Si
atom_frac 0.4166666666675833 0.5000000000003334 0.7499999999982496 Si
atom_frac 0.4166666666675833 0.5833333333336664 0.8333333333315831 Si
atom_frac 0.4166666666675831 0.6666666666669999 0.9166666666649165 Si
atom_frac 0.4166666666675832 0.7500000000003333 0.9999999999982497 Si
atom_frac 0.4166666666675832 0.8333333333336668 0.0833333333315833 Si
atom_frac 0.4166666666675832 0.9166666666670001 0.1666666666649166 Si
atom_frac 0.4166666666675832 0.0000000000003333 0.2499999999982498 Si
atom_frac 0.5000000000009166 0.0833333333336667 0.4166666666649165 Si
atom_frac 0.5000000000009166 0.1666666666670001 0.4999999999982499 Si
atom_frac 0.5000000000009167 0.2500000000003333 0.5833333333315831 Si
atom_frac 0.5000000000009165 0.3333333333336668 0.6666666666649166 Si
atom_frac 0.5000000000009166 0.4166666666670000 0.7499999999982500 Si
atom_frac 0.5000000000009165 0.5000000000003334 0.8333333333315831 Si
atom_frac 0.5000000000009166 0.5833333333336665 0.9166666666649166 Si
atom_frac 0.5000000000009167 0.6666666666670000 0.9999999999982500 Si
atom_frac 0.5000000000009165 0.7500000000003333 0.0833333333315833 Si
atom_frac 0.5000000000009165 0.8333333333336668 0.1666666666649168 Si
atom_frac 0.5000000000009166 0.9166666666670000 0.2499999999982498 Si
atom_frac 0.5000000000009166 0.0000000000003333 0.3333333333315833 Si
atom_frac 0.5833333333342501 0.0833333333336667 0.4999999999982500 Si
atom_frac 0.5833333333342502 0.1666666666670000 0.5833333333315833 Si
atom_frac 0.5833333333342501 0.2500000000003334 0.6666666666649166 Si
atom_frac 0.5833333333342500 0.3333333333336666 0.7499999999982501 Si
atom_frac 0.5833333333342501 0.4166666666670000 0.8333333333315832 Si
atom_frac 0.5833333333342501 0.5000000000003332 0.9166666666649165 Si
atom_frac 0.5833333333342501 0.5833333333336665 0.9999999999982500 Si
atom_frac 0.5833333333342500 0.6666666666670000 0.0833333333315833 Si
atom_frac 0.5833333333342500 0.7500000000003335 0.1666666666649166 Si
atom_frac 0.5833333333342500 0.8333333333336670 0.2499999999982501 Si
atom_frac 0.5833333333342500 0.9166666666669999 0.3333333333315833 Si
atom_frac 0.5833333333342500 0.0000000000003333 0.4166666666649167 Si
atom_frac 0.6666666666675835 0.0833333333336667 0.5833333333315831 Si
atom_frac 0.6666666666675833 0.1666666666670000 0.6666666666649166 Si
atom_frac 0.6666666666675835 0.2500000000003333 0.7499999999982500 Si
atom_frac 0.6666666666675832 0.3333333333336667 0.8333333333315831 Si
atom_frac 0.6666666666675835 0.4166666666670001 0.9166666666649166 Si
atom_frac 0.6666666666675833 0.5000000000003333 0.9999999999982500 Si
atom_frac 0.6666666666675832 0.5833333333336664 0.0833333333315833 Si
atom_frac 0.6666666666675835 0.6666666666669999 0.1666666666649166 Si
atom_frac 0.6666666666675833 0.7500000000003333 0.2499999999982498 Si
atom_frac 0.6666666666675835 0.8333333333336668 0.3333333333315833 Si
atom_frac 0.6666666666675833 0.9166666666670000 0.4166666666649165 Si
atom_frac 0.6666666666675833 0.0000000000003333 0.4999999999982500 Si
atom_frac 0.7500000000009164 0.0833333333336667 0.6666666666649165 Si
atom_frac 0.7500000000009165 0.1666666666670001 0.7499999999982501 Si
atom_frac 0.7500000000009164 0.2500000000003333 0.8333333333315832 Si
atom_frac 0.7500000000009164 0.3333333333336668 0.9166666666649166 Si
atom_frac 0.7500000000009165 0.4166666666670000 0.9999999999982497 Si
atom_frac 0.7500000000009163 0.5000000000003333 0.0833333333315833 Si
atom_frac 0.7500000000009164 0.5833333333336667 0.1666666666649166 Si
atom_frac 0.7500000000009165 0.6666666666670001 0.2499999999982501 Si
atom_frac 0.7500000000009165 0.7500000000003334 0.3333333333315833 Si
atom_frac 0.7500000000009164 0.8333333333336668 0.4166666666649167 Si
atom_frac 0.7500000000009164 0.9166666666670000 0.4999999999982501 Si
atom_frac 0.7500000000009165 0.0000000000003333 0.5833333333315833 Si
atom_frac 0.8333333333342499 0.0833333333336667 0.7499999999982498 Si
atom_frac 0.8333333333342497 0.1666666666670000 0.8333333333315830 Si
atom_frac 0.8333333333342499 0.2500000000003334 0.9166666666649166 Si
atom_frac 0.8333333333342497 0.3333333333336667 0.9999999999982500 Si
atom_frac 0.8333333333342497 0.4166666666670000 0.0833333333315831 Si
atom_frac 0.8333333333342497 0.5000000000003333 0.1666666666649166 Si
atom_frac 0.8333333333342497 0.5833333333336665 0.2499999999982498 Si
atom_frac 0.8333333333342500 0.6666666666670000 0.3333333333315831 Si
atom_frac 0.8333333333342497 0.7500000000003334 0.4166666666649163 Si
atom_frac 0.8333333333342497 0.8333333333336669 0.4999999999982498 Si
atom_frac 0.8333333333342499 0.9166666666670003 0.5833333333315829 Si
atom_frac 0.8333333333342497 0.0000000000003333 0.6666666666649166 Si
atom_frac 0.9166666666675830 0.0833333333336667 0.8333333333315831 Si
atom_frac 0.9166666666675832 0.1666666666670000 0.9166666666649164 Si
atom_frac 0.9166666666675831 0.2500000000003333 0.9999999999982497 Si
atom_frac 0.9166666666675829 0.3333333333336667 0.0833333333315831 Si
atom_frac 0.9166666666675831 0.4166666666670000 0.1666666666649164 Si
atom_frac 0.9166666666675830 0.5000000000003334 0.2499999999982498 Si
atom_frac 0.9166666666675831 0.5833333333336665 0.3333333333315831 Si
atom_frac 0.9166666666675831 0.6666666666669999 0.4166666666649163 Si
atom_frac 0.9166666666675831 0.7500000000003333 0.4999999999982499 Si
atom_frac 0.9166666666675831 0.8333333333336668 0.5833333333315833 Si
atom_frac 0.9166666666675830 0.9166666666670000 0.6666666666649163 Si
atom_frac 0.9166666666675831 0.0000000000003333 0.7499999999982498 Si
atom_frac 0.0000000000009166 0.0833333333336667 0.9166666666649166 Si
atom_frac 0.0000000000009166 0.1666666666670000 0.9999999999982497 Si
atom_frac 0.0000000000009166 0.2500000000003333 0.0833333333315833 Si
atom_frac 0.0000000000009166 0.3333333333336667 0.1666666666649166 Si
atom_frac 0.0000000000009166 0.4166666666670000 0.2499999999982498 Si
atom_frac 0.0000000000009166 0.5000000000003333 0.3333333333315830 Si
atom_frac 0.0000000000009166 0.5833333333336665 0.4166666666649163 Si
atom_frac 0.0000000000009166 0.6666666666670000 0.4999999999982498 Si
atom_frac 0.0000000000009166 0.7500000000003333 0.5833333333315831 Si
atom_frac 0.0000000000009166 0.8333333333336668 0.6666666666649166 Si
atom_frac 0.0000000000009166 0.9166666666670000 0.7499999999982498 Si
atom_frac 0.0000000000009166 0.0000000000003333 0.8333333333315831 Si
atom_frac 0.1666666666675833 0.1666666666670000 0.9999999999982500 Si
atom_frac 0.1666666666675833 0.2500000000003333 0.0833333333315833 Si
atom_frac 0.1666666666675833 0.3333333333336667 0.1666666666649167 Si
atom_frac 0.1666666666675833 0.4166666666670000 0.2499999999982500 Si
atom_frac 0.1666666666675833 0.5000000000003333 0.3333333333315833 Si
atom_frac 0.1666666666675833 0.5833333333336663 0.4166666666649166 Si
atom_frac 0.1666666666675833 0.6666666666669999 0.4999999999982500 Si
atom_frac 0.1666666666675833 0.7500000000003333 0.5833333333315833 Si
atom_frac 0.1666666666675833 0.8333333333336665 0.6666666666649164 Si
atom_frac 0.1666666666675833 0.9166666666670001 0.7499999999982501 Si
atom_frac 0.1666666666675833 0.0000000000003333 0.8333333333315832 Si
atom_frac 0.1666666666675833 0.0833333333336666 0.9166666666649165 Si
atom_frac 0.2500000000009166 0.1666666666670000 0.0833333333315833 Si
atom_frac 0.2500000000009167 0.2500000000003333 0.1666666666649166 Si
atom_frac 0.2500000000009167 0.3333333333336667 0.2499999999982500 Si
atom_frac 0.2500000000009167 0.4166666666670000 0.3333333333315833 Si
atom_frac 0.2500000000009167 0.5000000000003333 0.4166666666649166 Si
atom_frac 0.2500000000009166 0.5833333333336665 0.4999999999982499 Si
atom_frac 0.2500000000009165 0.6666666666670000 0.5833333333315831 Si
atom_frac 0.2500000000009166 0.7500000000003333 0.6666666666649165 Si
atom_frac 0.2500000000009166 0.8333333333336665 0.7499999999982498 Si
atom_frac 0.2500000000009166 0.9166666666670000 0.8333333333315831 Si
atom_frac 0.2500000000009165 0.0000000000003333 0.9166666666649166 Si
atom_frac 0.2500000000009166 0.0833333333336665 0.9999999999982500 Si
atom_frac 0.3333333333342499 0.1666666666670000 0.1666666666649166 Si
atom_frac 0.3333333333342499 0.2500000000003333 0.2499999999982500 Si
atom_frac 0.3333333333342499 0.3333333333336667 0.3333333333315833 Si
atom_frac 0.3333333333342499 0.4166666666670000 0.4166666666649166 Si
atom_frac 0.3333333333342499 0.5000000000003333 0.4999999999982500 Si
atom_frac 0.3333333333342499 0.5833333333336665 0.5833333333315833 Si
atom_frac 0.3333333333342499 0.6666666666669999 0.6666666666649164 Si
atom_frac 0.3333333333342498 0.7500000000003335 0.7499999999982500 Si
atom_frac 0.3333333333342499 0.8333333333336668 0.8333333333315831 Si
atom_frac 0.3333333333342497 0.9166666666669999 0.9166666666649165 Si
atom_frac 0.3333333333342498 0.0000000000003333 0.9999999999982497 Si
atom_frac 0.3333333333342498 0.0833333333336665 0.0833333333315833 Si
atom_frac 0.4166666666675832 0.1666666666670000 0.2499999999982499 Si
atom_frac 0.4166666666675832 0.2500000000003333 0.3333333333315833 Si
atom_frac 0.4166666666675832 0.3333333333336668 0.4166666666649166 Si
atom_frac 0.4166666666675832 0.4166666666670000 0.4999999999982499 Si
atom_frac 0.4166666666675832 0.5000000000003333 0.5833333333315830 Si
atom_frac 0.4166666666675832 0.5833333333336664 0.6666666666649165 Si
atom_frac 0.4166666666675832 0.6666666666669999 0.7499999999982498 Si
atom_frac 0.4166666666675832 0.7500000000003333 0.8333333333315830 Si
atom_frac 0.4166666666675832 0.8333333333336665 0.9166666666649165 Si
atom_frac 0.4166666666675832 0.9166666666670000 0.9999999999982500 Si
atom_frac 0.4166666666675832 0.0000000000003333 0.0833333333315833 Si
atom_frac 0.4166666666675832 0.0833333333336666 0.1666666666649166 Si
atom_frac 0.5000000000009166 0.1666666666670000 0.3333333333315833 Si
atom_frac 0.5000000000009166 0.2500000000003333 0.4166666666649166 Si
atom_frac 0.5000000000009165 0.3333333333336667 0.4999999999982500 Si
atom_frac 0.5000000000009167 0.4166666666670000 0.5833333333315833 Si
atom_frac 0.5000000000009165 0.5000000000003333 0.6666666666649164 Si
atom_frac 0.5000000000009166 0.5833333333336667 0.7499999999982498 Si
atom_frac 0.5000000000009166 0.6666666666670000 0.8333333333315831 Si
atom_frac 0.5000000000009165 0.7500000000003332 0.9166666666649164 Si
atom_frac 0.5000000000009165 0.8333333333336665 0.9999999999982497 Si
atom_frac 0.5000000000009165 0.9166666666670000 0.0833333333315833 Si
atom_frac 0.5000000000009165 0.0000000000003333 0.1666666666649166 Si
atom_frac 0.5000000000009165 0.0833333333336665 0.2499999999982498 Si
atom_frac 0.5833333333342500 0.1666666666670000 0.4166666666649166 Si
atom_frac 0.5833333333342500 0.2500000000003333 0.4999999999982499 Si
atom_frac 0.5833333333342500 0.3333333333336667 0.5833333333315833 Si
atom_frac 0.5833333333342500 0.4166666666670000 0.6666666666649165 Si
atom_frac 0.5833333333342500 0.5000000000003333 0.7499999999982498 Si
atom_frac 0.5833333333342499 0.5833333333336665 0.8333333333315831 Si
atom_frac 0.5833333333342501 0.6666666666669999 0.9166666666649166 Si
atom_frac 0.5833333333342499 0.7500000000003334 0.9999999999982500 Si
atom_frac 0.5833333333342497 0.8333333333336668 0.0833333333315833 Si
atom_frac 0.5833333333342499 0.9166666666670000 0.1666666666649168 Si
atom_frac 0.5833333333342499 0.0000000000003333 0.2499999999982498 Si
atom_frac 0.5833333333342500 0.0833333333336665 0.3333333333315833 Si
atom_frac 0.6666666666675833 0.1666666666670000 0.4999999999982500 Si
atom_frac 0.6666666666675835 0.2500000000003333 0.5833333333315833 Si
atom_frac 0.6666666666675832 0.3333333333336668 0.6666666666649165 Si
atom_frac 0.6666666666675835 0.4166666666670000 0.7499999999982501 Si
atom_frac 0.6666666666675832 0.5000000000003334 0.8333333333315832 Si
atom_frac 0.6666666666675835 0.5833333333336663 0.9166666666649164 Si
atom_frac 0.6666666666675835 0.6666666666669999 0.9999999999982497 Si
atom_frac 0.6666666666675830 0.7500000000003333 0.0833333333315833 Si
atom_frac 0.6666666666675832 0.8333333333336665 0.1666666666649166 Si
atom_frac 0.6666666666675832 0.9166666666670001 0.2499999999982500 Si
atom_frac 0.6666666666675833 0.0000000000003333 0.3333333333315833 Si
atom_frac 0.6666666666675832 0.0833333333336665 0.4166666666649168 Si
atom_frac 0.7500000000009165 0.1666666666670000 0.5833333333315833 Si
atom_frac 0.7500000000009164 0.2500000000003333 0.6666666666649165 Si
atom_frac 0.7500000000009164 0.3333333333336667 0.7499999999982498 Si
atom_frac 0.7500000000009164 0.4166666666670000 0.8333333333315833 Si
atom_frac 0.7500000000009165 0.5000000000003333 0.9166666666649166 Si
atom_frac 0.7500000000009164 0.5833333333336665 0.9999999999982500 Si
atom_frac 0.7500000000009164 0.6666666666670000 0.0833333333315833 Si
atom_frac 0.7500000000009164 0.7500000000003335 0.1666666666649166 Si
atom_frac 0.7500000000009164 0.8333333333336665 0.2499999999982498 Si
atom_frac 0.7500000000009165 0.9166666666670000 0.3333333333315833 Si
atom_frac 0.7500000000009164 0.0000000000003333 0.4166666666649166 Si
atom_frac 0.7500000000009165 0.0833333333336666 0.4999999999982500 Si
atom_frac 0.8333333333342499 0.1666666666670000 0.6666666666649165 Si
atom_frac 0.8333333333342500 0.2500000000003333 0.7499999999982501 Si
atom_frac 0.8333333333342497 0.3333333333336667 0.8333333333315832 Si
atom_frac 0.8333333333342501 0.4166666666670000 0.9166666666649165 Si
atom_frac 0.8333333333342499 0.5000000000003333 0.9999999999982500 Si
atom_frac 0.8333333333342499 0.5833333333336665 0.0833333333315833 Si
atom_frac 0.8333333333342500 0.6666666666669999 0.1666666666649166 Si
atom_frac 0.8333333333342499 0.7500000000003335 0.2499999999982500 Si
atom_frac 0.8333333333342500 0.8333333333336667 0.3333333333315833 Si
atom_frac 0.8333333333342499 0.9166666666670001 0.4166666666649168 Si
atom_frac 0.8333333333342500 0.0000000000003333 0.4999999999982501 Si
atom_frac 0.8333333333342500 0.0833333333336665 0.5833333333315833 Si
atom_frac 0.9166666666675832 0.1666666666670000 0.7499999999982497 Si
atom_frac 0.9166666666675831 0.2500000000003333 0.8333333333315832 Si
atom_frac 0.9166666666675832 0.3333333333336667 0.9166666666649166 Si
atom_frac 0.9166666666675832 0.4166666666670001 0.9999999999982497 Si
atom_frac 0.9166666666675831 0.5000000000003334 0.0833333333315831 Si
atom_frac 0.9166666666675831 0.5833333333336667 0.1666666666649166 Si
atom_frac 0.9166666666675832 0.6666666666669999 0.2499999999982498 Si
atom_frac 0.9166666666675831 0.7500000000003333 0.3333333333315830 Si
atom_frac 0.9166666666675830 0.8333333333336665 0.4166666666649164 Si
atom_frac 0.9166666666675831 0.9166666666670000 0.4999999999982498 Si
atom_frac 0.9166666666675831 0.0000000000003333 0.5833333333315831 Si
atom_frac 0.9166666666675830 0.0833333333336666 0.6666666666649165 Si
atom_frac 0.0000000000009164 0.1666666666670000 0.8333333333315831 Si
atom_frac 0.0000000000009164 0.2500000000003333 0.9166666666649164 Si
atom_frac 0.0000000000009164 0.3333333333336668 0.9999999999982497 Si
atom_frac 0.0000000000009164 0.4166666666670000 0.0833333333315831 Si
atom_frac 0.0000000000009164 0.5000000000003333 0.1666666666649164 Si
atom_frac 0.0000000000009164 0.5833333333336667 0.2499999999982498 Si
atom_frac 0.0000000000009164 0.6666666666669999 0.3333333333315831 Si
atom_frac 0.0000000000009164 0.7500000000003332 0.4166666666649163 Si
atom_frac 0.0000000000009164 0.8333333333336665 0.4999999999982499 Si
atom_frac 0.0000000000009164 0.9166666666670000 0.5833333333315833 Si
atom_frac 0.0000000000009164 0.0000000000003333 0.6666666666649161 Si
atom_frac 0.0000000000009164 0.0833333333336666 0.7499999999982498 Si
atom_frac 0.0833333333342498 0.1666666666670000 0.9166666666649166 Si
atom_frac 0.0833333333342498 0.2500000000003333 0.9999999999982500 Si