#=======================================================
# FHI-aims file: ./geometry.in
# Created using the Atomic Simulation Environment (ASE)
# Mon Jun  9 18:47:46 2025
#=======================================================
lattice_vector 10.8176651769019987 0.0000000001279989 0.0000000002739995 
lattice_vector 0.0000000001259997 10.8176651485879987 0.0000000002060005 
lattice_vector 0.0000000002740004 0.0000000002040004 10.8176651484619999 
atom_frac 0.0009244139009089 0.0000000000067500 0.0000000000032500 Si
atom_frac 0.0000000000060000 0.2500000000067500 0.2500000000032500 Si
atom_frac 0.0000000000060000 0.5000000000067500 0.5000000000032500 Si
atom_frac 0.0000000000060000 0.7500000000067500 0.7500000000032498 Si
atom_frac 0.2500000000060000 0.0000000000067500 0.2500000000032500 Si
atom_frac 0.2500000000060000 0.2500000000067500 0.5000000000032500 Si
atom_frac 0.2500000000060000 0.5000000000067499 0.7500000000032498 Si
atom_frac 0.2500000000060000 0.7500000000067500 0.0000000000032498 Si
atom_frac 0.5000000000059999 0.0000000000067500 0.5000000000032500 Si
atom_frac 0.5000000000059999 0.2500000000067500 0.7500000000032498 Si
atom_frac 0.5000000000059999 0.5000000000067499 0.0000000000032498 Si
atom_frac 0.5000000000059999 0.7500000000067500 0.2500000000032498 Si
atom_frac 0.7500000000059999 0.0000000000067500 0.7500000000032498 Si
atom_frac 0.7500000000059999 0.2500000000067500 0.0000000000032501 Si
atom_frac 0.7500000000059999 0.5000000000067499 0.2500000000032498 Si
atom_frac 0.7500000000059999 0.7500000000067500 0.5000000000032498 Si
atom_frac 0.2500000000060000 0.2500000000067500 0.0000000000032500 Si
atom_frac 0.2500000000060000 0.5000000000067499 0.2500000000032500 Si
atom_frac 0.2500000000060000 0.7500000000067500 0.5000000000032500 Si
atom_frac 0.2500000000060000 0.0000000000067499 0.7500000000032498 Si
atom_frac 0.5000000000059999 0.2500000000067500 0.2500000000032500 Si
atom_frac 0.5000000000059999 0.5000000000067500 0.5000000000032500 Si
atom_frac 0.5000000000059999 0.7500000000067500 0.7500000000032498 Si
atom_frac 0.5000000000059999 0.0000000000067499 0.0000000000032498 Si
atom_frac 0.7500000000059996 0.2500000000067500 0.5000000000032500 Si
atom_frac 0.7500000000059999 0.5000000000067499 0.7500000000032498 Si
atom_frac 0.7500000000059999 0.7500000000067500 0.0000000000032498 Si
atom_frac 0.7500000000059999 0.0000000000067499 0.2500000000032498 Si
atom_frac 0.0000000000060001 0.2500000000067500 0.7500000000032498 Si
atom_frac 0.0000000000060001 0.5000000000067499 0.0000000000032501 Si
atom_frac 0.0000000000060001 0.7500000000067500 0.2500000000032498 Si
atom_frac 0.0000000000060001 0.0000000000067499 0.5000000000032498 Si
atom_frac 0.1249999999940000 0.1249999999932500 0.1249999999967500 Si
atom_frac 0.1249999999940000 0.3749999999932500 0.3749999999967500 Si
atom_frac 0.1249999999940000 0.6249999999932502 0.6249999999967500 Si
atom_frac 0.1249999999940000 0.8749999999932503 0.8749999999967500 Si
atom_frac 0.3749999999940000 0.1249999999932500 0.3749999999967500 Si
atom_frac 0.3749999999940000 0.3749999999932501 0.6249999999967499 Si
atom_frac 0.3749999999940000 0.6249999999932502 0.8749999999967500 Si
atom_frac 0.3749999999940000 0.8749999999932502 0.1249999999967499 Si
atom_frac 0.6249999999940001 0.1249999999932500 0.6249999999967500 Si
atom_frac 0.6249999999940000 0.3749999999932501 0.8749999999967500 Si
atom_frac 0.6249999999939999 0.6249999999932502 0.1249999999967502 Si
atom_frac 0.6249999999939999 0.8749999999932500 0.3749999999967502 Si
atom_frac 0.8749999999939998 0.1249999999932500 0.8749999999967500 Si
atom_frac 0.8749999999939999 0.3749999999932501 0.1249999999967499 Si
atom_frac 0.8749999999939998 0.6249999999932501 0.3749999999967499 Si
atom_frac 0.8749999999939999 0.8749999999932502 0.6249999999967499 Si
atom_frac 0.3749999999940000 0.3749999999932501 0.1249999999967500 Si
atom_frac 0.3749999999939999 0.6249999999932501 0.3749999999967500 Si
atom_frac 0.3749999999940000 0.8749999999932500 0.6249999999967500 Si
atom_frac 0.3749999999940000 0.1249999999932501 0.8749999999967500 Si
atom_frac 0.6249999999939999 0.3749999999932500 0.3749999999967500 Si
atom_frac 0.6249999999940000 0.6249999999932500 0.6249999999967499 Si
atom_frac 0.6249999999939999 0.8749999999932500 0.8749999999967500 Si
atom_frac 0.6249999999939999 0.1249999999932501 0.1249999999967499 Si
atom_frac 0.8749999999939999 0.3749999999932501 0.6249999999967500 Si
atom_frac 0.8749999999939999 0.6249999999932501 0.8749999999967500 Si
atom_frac 0.8749999999939999 0.8749999999932500 0.1249999999967501 Si
atom_frac 0.8749999999939998 0.1249999999932501 0.3749999999967502 Si
atom_frac 0.1249999999939999 0.3749999999932501 0.8749999999967500 Si
atom_frac 0.1249999999939999 0.6249999999932502 0.1249999999967499 Si
atom_frac 0.1249999999939999 0.8749999999932500 0.3749999999967499 Si
atom_frac 0.1249999999939999 0.1249999999932501 0.6249999999967499 Si
