#=======================================================
# FHI-aims file: ./geometry.in
# Created using the Atomic Simulation Environment (ASE)
# Tue Jun 10 14:31:20 2025
#=======================================================
lattice_vector 5.4088325884509993 0.0000000000639995 0.0000000001369997 
lattice_vector 0.0000000000629998 5.4088325742939993 0.0000000001030003 
lattice_vector 0.0000000001370002 0.0000000001020002 5.4088325742309999 
atom_frac -0.0025225497837720 0.0092163720029972 0.0126726473762812 Si
atom_frac 0.0011017149086969 0.4923293282412709 0.4920158663630849 Si
atom_frac 0.5075072004758934 0.0029408242733710 0.4957542461131753 Si
atom_frac 0.4950971576227143 0.4894383078955624 -0.0100459497185774 Si
atom_frac 0.2495529245726103 0.2449527738742666 0.2617473895238129 Si
atom_frac 0.2384340417502288 0.7600024027471368 0.7419632523160192 Si
atom_frac 0.7728519109179569 0.2475685870385147 0.7555431145074857 Si
atom_frac 0.7379775995388546 0.7535514039432513 0.2503494335192717 Si
