#=======================================================
# FHI-aims file: ./geometry.in
# Created using the Atomic Simulation Environment (ASE)
# Tue Jun 10 17:55:30 2025
#=======================================================
lattice_vector 0.0000000000000000 2.7130337629099999 2.7130337629099999 
lattice_vector 2.7130337629099999 0.0000000000000000 2.7130337629099999 
lattice_vector 2.7130337629099999 2.7130337629099999 0.0000000000000000 
atom_frac 0.0000000000000000 0.0000000000000000 -0.0000000000000000 Si
atom_frac 0.2500000000000000 0.2500000000000000 0.2500000000000000 Si
