#=======================================================
# FHI-aims file: ./geometry.in
# Created using the Atomic Simulation Environment (ASE)
# Tue May 20 19:24:37 2025
#=======================================================
lattice_vector 5.3175461753035993 -0.0000000000000001 -0.0000000000000001 
lattice_vector -0.0000000000000001 5.3175461753035993 0.0000000000000001 
lattice_vector 0.0000000000000001 0.0000000000000001 5.3175461753035993 
atom_frac 0.0018805666505433 0.0000000000000000 0.0000000000000000 Si
atom_frac 1.0000000000000000 0.5000000000000000 0.5000000000000000 Si
atom_frac 0.5000000000000000 0.0000000000000000 0.5000000000000000 Si
atom_frac 0.4999999999999999 0.5000000000000000 0.0000000000000000 Si
atom_frac 0.2500000000000000 0.2500000000000000 0.2500000000000000 Si
atom_frac 0.2500000000000000 0.7500000000000000 0.7500000000000000 Si
atom_frac 0.7499999999999999 0.2500000000000000 0.7500000000000000 Si
atom_frac 0.7499999999999999 0.7500000000000000 0.2500000000000000 Si
