#=======================================================
# FHI-aims file: ./geometry.in
# Created using the Atomic Simulation Environment (ASE)
# Tue Jun 10 14:40:23 2025
#=======================================================
lattice_vector 5.4088325884509993 0.0000000000639995 0.0000000001369997 
lattice_vector 0.0000000000629998 5.4088325742939993 0.0000000001030003 
lattice_vector 0.0000000001370002 0.0000000001020002 5.4088325742309999 
atom_frac -0.0114029062852178 0.0098813367065327 -0.0110959957713731 Si
atom_frac 0.0215096737802716 0.5102096216533604 0.4888317205680283 Si
atom_frac 0.4764491959958693 -0.0138650763022602 0.5124348095747773 Si
atom_frac 0.5148852568796692 0.4936489618565180 0.0159959038995244 Si
atom_frac 0.2405660935577269 0.2440704481201428 0.2446129337774587 Si
atom_frac 0.2539718891426135 0.7343280679935593 0.7533423470374503 Si
atom_frac 0.7507853032392586 0.2657266824673492 0.7413020506319776 Si
atom_frac 0.7532354936957454 0.7559999575058128 0.2545762302837993 Si
