#=======================================================
# FHI-aims file: geometry.in
# Created using the Atomic Simulation Environment (ASE)
# Tue Jun 10 15:13:50 2025
#=======================================================
lattice_vector 5.4088325884509993 0.0000000000639995 0.0000000001369997 
lattice_vector 0.0000000000629998 5.4088325742939993 0.0000000001030003 
lattice_vector 0.0000000001370002 0.0000000001020002 5.4088325742309999 
atom 0.0325137960762549 0.1904255861521341 -0.0819183952377696 Si
atom 0.0879674161784216 2.7782245437433533 2.8677070673417404 Si
atom 2.6527865807046336 -0.1468287671138841 2.6137352042741213 Si
atom 2.7205602216298193 2.5233812393280313 0.0479344111939367 Si
atom 1.1855509112272069 1.3902652779053353 1.3823911139824980 Si
atom 1.4401748445566558 4.1789064160897818 4.1477375368791218 Si
atom 3.9838713866473370 1.3665812776270625 4.0054706376852094 Si
atom 4.1230726091436321 3.9455421498115215 1.2434401472910759 Si
