#=======================================================
# FHI-aims file: ./geometry.in
# Created using the Atomic Simulation Environment (ASE)
# Mon Jun  9 18:55:47 2025
#=======================================================
lattice_vector 0.0000000004000000 10.8176651487920008 10.8176651486680004 
lattice_vector 10.8176651771760000 0.0000000003320000 10.8176651487359994 
lattice_vector 10.8176651770279992 10.8176651487159994 0.0000000004800000 
atom_frac 0.0006536593374154 0.0000000000012500 0.0000000000047500 Si
atom_frac 0.2500000000020000 0.0000000000012500 0.0000000000047500 Si
atom_frac 0.5000000000019998 0.0000000000012501 0.0000000000047499 Si
atom_frac 0.7500000000020001 0.0000000000012501 0.0000000000047500 Si
atom_frac 0.0000000000020000 0.2500000000012499 0.0000000000047500 Si
atom_frac 0.2500000000020001 0.2500000000012501 0.0000000000047499 Si
atom_frac 0.5000000000020001 0.2500000000012501 0.0000000000047500 Si
atom_frac 0.7500000000020001 0.2500000000012501 0.0000000000047498 Si
atom_frac 0.0000000000020000 0.5000000000012501 0.0000000000047501 Si
atom_frac 0.2500000000020001 0.5000000000012501 0.0000000000047499 Si
atom_frac 0.5000000000020001 0.5000000000012501 0.0000000000047498 Si
atom_frac 0.7500000000020001 0.5000000000012501 0.0000000000047498 Si
atom_frac 0.0000000000020000 0.7500000000012500 0.0000000000047499 Si
atom_frac 0.2500000000020000 0.7500000000012500 0.0000000000047500 Si
atom_frac 0.5000000000020001 0.7500000000012500 0.0000000000047500 Si
atom_frac 0.7500000000020002 0.7500000000012500 0.0000000000047501 Si
atom_frac 0.0000000000020000 0.0000000000012500 0.2500000000047500 Si
atom_frac 0.2500000000020000 0.0000000000012501 0.2500000000047499 Si
atom_frac 0.5000000000020001 0.0000000000012501 0.2500000000047499 Si
atom_frac 0.7500000000020001 0.0000000000012500 0.2500000000047500 Si
atom_frac 0.0000000000020000 0.2500000000012500 0.2500000000047500 Si
atom_frac 0.2500000000020000 0.2500000000012501 0.2500000000047499 Si
atom_frac 0.5000000000020002 0.2500000000012502 0.2500000000047498 Si
atom_frac 0.7500000000020001 0.2500000000012500 0.2500000000047500 Si
atom_frac 0.0000000000020000 0.5000000000012500 0.2500000000047500 Si
atom_frac 0.2500000000020000 0.5000000000012501 0.2500000000047499 Si
atom_frac 0.5000000000020001 0.5000000000012503 0.2500000000047498 Si
atom_frac 0.7500000000020001 0.5000000000012500 0.2500000000047500 Si
atom_frac 0.0000000000019999 0.7500000000012500 0.2500000000047499 Si
atom_frac 0.2500000000020000 0.7500000000012502 0.2500000000047499 Si
atom_frac 0.5000000000019998 0.7500000000012502 0.2500000000047499 Si
atom_frac 0.7500000000020001 0.7500000000012500 0.2500000000047500 Si
atom_frac 0.0000000000020000 0.0000000000012500 0.5000000000047500 Si
atom_frac 0.2500000000020001 0.0000000000012501 0.5000000000047499 Si
atom_frac 0.5000000000019998 0.0000000000012500 0.5000000000047500 Si
atom_frac 0.7500000000019998 0.0000000000012500 0.5000000000047500 Si
atom_frac 0.0000000000019999 0.2500000000012501 0.5000000000047500 Si
atom_frac 0.2500000000020001 0.2500000000012501 0.5000000000047500 Si
atom_frac 0.5000000000020000 0.2500000000012501 0.5000000000047499 Si
atom_frac 0.7500000000020001 0.2500000000012503 0.5000000000047499 Si
atom_frac 0.0000000000020000 0.5000000000012500 0.5000000000047499 Si
atom_frac 0.2500000000020001 0.5000000000012502 0.5000000000047499 Si
atom_frac 0.5000000000019998 0.5000000000012502 0.5000000000047499 Si
atom_frac 0.7500000000019998 0.5000000000012500 0.5000000000047499 Si
atom_frac 0.0000000000019999 0.7500000000012502 0.5000000000047500 Si
atom_frac 0.2500000000020000 0.7500000000012500 0.5000000000047500 Si
atom_frac 0.5000000000020001 0.7500000000012500 0.5000000000047498 Si
atom_frac 0.7500000000020001 0.7500000000012503 0.5000000000047499 Si
atom_frac 0.0000000000020001 0.0000000000012501 0.7500000000047498 Si
atom_frac 0.2500000000019998 0.0000000000012501 0.7500000000047500 Si
atom_frac 0.5000000000020002 0.0000000000012501 0.7500000000047498 Si
atom_frac 0.7500000000020001 0.0000000000012501 0.7500000000047500 Si
atom_frac 0.0000000000019999 0.2500000000012502 0.7500000000047498 Si
atom_frac 0.2500000000019998 0.2500000000012502 0.7500000000047500 Si
atom_frac 0.5000000000020002 0.2500000000012502 0.7500000000047498 Si
atom_frac 0.7500000000019998 0.2500000000012504 0.7500000000047500 Si
atom_frac 0.0000000000020000 0.5000000000012504 0.7500000000047498 Si
atom_frac 0.2500000000020000 0.5000000000012503 0.7500000000047498 Si
atom_frac 0.5000000000020001 0.5000000000012503 0.7500000000047498 Si
atom_frac 0.7500000000020001 0.5000000000012501 0.7500000000047500 Si
atom_frac 0.0000000000019998 0.7500000000012503 0.7500000000047501 Si
atom_frac 0.2500000000020000 0.7500000000012502 0.7500000000047500 Si
atom_frac 0.5000000000019998 0.7500000000012502 0.7500000000047500 Si
atom_frac 0.7500000000020001 0.7500000000012503 0.7500000000047498 Si
atom_frac 0.0624999999980000 0.0624999999987500 0.0624999999952500 Si
atom_frac 0.3124999999980000 0.0624999999987501 0.0624999999952499 Si
atom_frac 0.5624999999980000 0.0624999999987501 0.0624999999952499 Si
atom_frac 0.8124999999979999 0.0624999999987500 0.0624999999952499 Si
atom_frac 0.0624999999980000 0.3124999999987500 0.0624999999952499 Si
atom_frac 0.3124999999980001 0.3124999999987501 0.0624999999952498 Si
atom_frac 0.5624999999980000 0.3124999999987501 0.0624999999952499 Si
atom_frac 0.8124999999980000 0.3124999999987500 0.0624999999952499 Si
atom_frac 0.0624999999980000 0.5624999999987500 0.0624999999952499 Si
atom_frac 0.3124999999979999 0.5624999999987501 0.0624999999952500 Si
atom_frac 0.5624999999980000 0.5624999999987500 0.0624999999952500 Si
atom_frac 0.8124999999980000 0.5624999999987500 0.0624999999952499 Si
atom_frac 0.0624999999979999 0.8124999999987500 0.0624999999952500 Si
atom_frac 0.3124999999979999 0.8124999999987500 0.0624999999952500 Si
atom_frac 0.5624999999980000 0.8124999999987501 0.0624999999952499 Si
atom_frac 0.8124999999979999 0.8124999999987500 0.0624999999952501 Si
atom_frac 0.0624999999980000 0.0624999999987501 0.3124999999952499 Si
atom_frac 0.3124999999980000 0.0624999999987500 0.3124999999952500 Si
atom_frac 0.5624999999980002 0.0624999999987501 0.3124999999952500 Si
atom_frac 0.8124999999979999 0.0624999999987499 0.3124999999952501 Si
atom_frac 0.0624999999980000 0.3124999999987501 0.3124999999952500 Si
atom_frac 0.3124999999980000 0.3124999999987501 0.3124999999952499 Si
atom_frac 0.5624999999980000 0.3124999999987500 0.3124999999952500 Si
atom_frac 0.8124999999980000 0.3124999999987500 0.3124999999952500 Si
atom_frac 0.0624999999980000 0.5624999999987502 0.3124999999952501 Si
atom_frac 0.3124999999979999 0.5624999999987500 0.3124999999952500 Si
atom_frac 0.5624999999980000 0.5624999999987500 0.3124999999952500 Si
atom_frac 0.8124999999979999 0.5624999999987499 0.3124999999952502 Si
atom_frac 0.0624999999979998 0.8124999999987500 0.3124999999952501 Si
atom_frac 0.3124999999979999 0.8124999999987500 0.3124999999952500 Si
atom_frac 0.5624999999979999 0.8124999999987501 0.3124999999952499 Si
atom_frac 0.8124999999979999 0.8124999999987498 0.3124999999952502 Si
atom_frac 0.0624999999979999 0.0624999999987499 0.5624999999952501 Si
atom_frac 0.3124999999980001 0.0624999999987502 0.5624999999952499 Si
atom_frac 0.5624999999979998 0.0624999999987502 0.5624999999952499 Si
atom_frac 0.8124999999979997 0.0624999999987502 0.5624999999952499 Si
atom_frac 0.0624999999979998 0.3124999999987501 0.5624999999952501 Si
atom_frac 0.3124999999980000 0.3124999999987502 0.5624999999952499 Si
atom_frac 0.5624999999979998 0.3124999999987501 0.5624999999952501 Si
atom_frac 0.8124999999979997 0.3124999999987501 0.5624999999952501 Si
atom_frac 0.0624999999979999 0.5624999999987500 0.5624999999952501 Si
atom_frac 0.3124999999979998 0.5624999999987500 0.5624999999952501 Si
atom_frac 0.5624999999979998 0.5624999999987501 0.5624999999952499 Si
atom_frac 0.8124999999979999 0.5624999999987501 0.5624999999952499 Si
atom_frac 0.0624999999979999 0.8124999999987501 0.5624999999952501 Si
atom_frac 0.3124999999979999 0.8124999999987500 0.5624999999952501 Si
atom_frac 0.5624999999979998 0.8124999999987503 0.5624999999952502 Si
atom_frac 0.8124999999979997 0.8124999999987501 0.5624999999952501 Si
atom_frac 0.0624999999979999 0.0624999999987502 0.8124999999952500 Si
atom_frac 0.3124999999979998 0.0624999999987502 0.8124999999952500 Si
atom_frac 0.5624999999979998 0.0624999999987504 0.8124999999952500 Si
atom_frac 0.8124999999979997 0.0624999999987505 0.8124999999952498 Si
atom_frac 0.0624999999979999 0.3124999999987503 0.8124999999952500 Si
atom_frac 0.3124999999980000 0.3124999999987501 0.8124999999952500 Si
atom_frac 0.5624999999979998 0.3124999999987501 0.8124999999952500 Si
atom_frac 0.8124999999980000 0.3124999999987501 0.8124999999952500 Si
atom_frac 0.0624999999979998 0.5624999999987502 0.8124999999952500 Si
atom_frac 0.3124999999979998 0.5624999999987502 0.8124999999952500 Si
atom_frac 0.5624999999979997 0.5624999999987502 0.8124999999952501 Si
atom_frac 0.8124999999979999 0.5624999999987503 0.8124999999952500 Si
atom_frac 0.0624999999979998 0.8124999999987503 0.8124999999952500 Si
atom_frac 0.3124999999979999 0.8124999999987501 0.8124999999952501 Si
atom_frac 0.5624999999979996 0.8124999999987501 0.8124999999952501 Si
atom_frac 0.8124999999979999 0.8124999999987498 0.8124999999952501 Si
