#=======================================================
# FHI-aims file: ./geometry.in
# Created using the Atomic Simulation Environment (ASE)
# Tue Jun 10 15:23:34 2025
#=======================================================
lattice_vector 5.4088325884509993 0.0000000000639995 0.0000000001369997 
lattice_vector 0.0000000000629998 5.4088325742939993 0.0000000001030003 
lattice_vector 0.0000000001370002 0.0000000001020002 5.4088325742309999 
atom_frac -0.0124301628798575 0.0045246958903654 -0.0136110820923242 Si
atom_frac 0.0345315965326019 0.4982656225162265 0.4837960787841597 Si
atom_frac 0.4878209524082646 0.0179502756850555 0.4815385748675515 Si
atom_frac 0.5059697897042337 0.4944477706062176 0.0230960851828541 Si
atom_frac 0.2244058213707106 0.2350116079548088 0.2365430256125827 Si
atom_frac 0.2739247834800108 0.7584424557455411 0.7605700218943190 Si
atom_frac 0.7353497139434979 0.2537706797784863 0.7530009788660155 Si
atom_frac 0.7504275054812345 0.7375868917841655 0.2750663168861270 Si
