#=======================================================
# FHI-aims file: ./geometry.in
# Created using the Atomic Simulation Environment (ASE)
# Tue Jun 10 15:19:59 2025
#=======================================================
lattice_vector 5.4088325884509993 0.0000000000639995 0.0000000001369997 
lattice_vector 0.0000000000629998 5.4088325742939993 0.0000000001030003 
lattice_vector 0.0000000001370002 0.0000000001020002 5.4088325742309999 
atom_frac -0.0027375984186695 -0.0109919245536261 -0.0045362320606238 Si
atom_frac -0.0060960765224377 0.4769325888662144 0.4536910116542271 Si
atom_frac 0.4744142908501992 0.0148015260726671 0.5426561284462555 Si
atom_frac 0.5328081779318923 0.5311588167982695 0.0108127220065757 Si
atom_frac 0.2748637026352808 0.2458296929421903 0.2118696828811821 Si
atom_frac 0.2211070302035097 0.6870171577733469 0.7438288604121404 Si
atom_frac 0.7649315942492043 0.2668518474684963 0.7573484175715119 Si
atom_frac 0.7407088790726766 0.7884002946034426 0.2843294090926432 Si
