#=======================================================
# FHI-aims file: ./geometry.in
# Created using the Atomic Simulation Environment (ASE)
# Tue Jun 10 15:00:31 2025
#=======================================================
lattice_vector 5.4088325884509993 0.0000000000639995 0.0000000001369997 
lattice_vector 0.0000000000629998 5.4088325742939993 0.0000000001030003 
lattice_vector 0.0000000001370002 0.0000000001020002 5.4088325742309999 
atom_frac 0.0144292958635320 -0.0297265377391367 -0.0164947063895943 Si
atom_frac -0.0091958816953409 0.4641075526016230 0.5235442109926051 Si
atom_frac 0.4984569363834976 0.0359580684596549 0.4881650685946829 Si
atom_frac 0.4963650314040342 0.5241738020297784 0.0163915571584975 Si
atom_frac 0.2434331126537764 0.2517453080921871 0.2327119867740104 Si
atom_frac 0.2517461756186955 0.7583637063750122 0.7100671466450723 Si
atom_frac 0.7399049197105046 0.2330697751439539 0.7726934436248110 Si
atom_frac 0.7648604100581267 0.7623083250500234 0.2729212925978173 Si
