#=======================================================
# FHI-aims file: ./geometry.in
# Created using the Atomic Simulation Environment (ASE)
# Tue Jun 10 14:51:44 2025
#=======================================================
lattice_vector 5.4088325884509993 0.0000000000639995 0.0000000001369997 
lattice_vector 0.0000000000629998 5.4088325742939993 0.0000000001030003 
lattice_vector 0.0000000001370002 0.0000000001020002 5.4088325742309999 
atom_frac -0.0149709009206965 0.0127779765320563 0.0241909929576365 Si
atom_frac 0.0065851023083789 0.4715436764553389 0.5169425321359856 Si
atom_frac 0.4998468716306257 -0.0015662617339745 0.4833117399554933 Si
atom_frac 0.5111506492502284 0.5249009911740653 -0.0057638757266195 Si
atom_frac 0.2668850440912493 0.2526128363875435 0.2227147870300805 Si
atom_frac 0.2242405115112300 0.7654159462105766 0.7390592630449540 Si
atom_frac 0.7457987579834647 0.2437009063087182 0.7542678934967786 Si
atom_frac 0.7604639641529701 0.7306139286463017 0.2652766671071807 Si
