#=======================================================
# FHI-aims file: geometry.in
# Created using the Atomic Simulation Environment (ASE)
# Tue Jun 10 14:39:19 2025
#=======================================================
lattice_vector 5.4088325884509993 0.0000000000639995 0.0000000001369997 
lattice_vector 0.0000000000629998 5.4088325742939993 0.0000000001030003 
lattice_vector 0.0000000001370002 0.0000000001020002 5.4088325742309999 
atom -0.0434674526222483 0.0483346244344751 -0.0057641495333200 Si
atom -0.1003144574370553 2.6761717957579791 2.7610420927801989 Si
atom 2.6576189375316384 0.0192012714453645 2.7324894048884598 Si
atom 2.8411386351300294 2.6972529630835105 0.0445250168475586 Si
atom 1.3456418964313974 1.3035978431806268 1.3742665561325855 Si
atom 1.3921633238259277 4.0464774942876920 3.9512364030429405 Si
atom 3.9546568876377983 1.2607421306935129 4.0553003549137712 Si
atom 4.1790599953151455 4.1747196004070801 1.3134020443320893 Si
