#=======================================================
# FHI-aims file: geometry.in.supercell
# Created using the Atomic Simulation Environment (ASE)
# Mon Jun  9 19:04:39 2025

# Additional information:
#  Number of atoms:     54
#=======================================================
lattice_vector 0.0000000003000000 8.1132488615940002 8.1132488615010008 
lattice_vector 8.1132488828820009 0.0000000002490000 8.1132488615520000 
lattice_vector 8.1132488827709999 8.1132488615369986 0.0000000003600000 
atom 0.0000000000649060 0.0000000000730192 0.0000000000351574 Si
atom 0.0000000001649060 2.7044162872710191 2.7044162872021578 Si
atom 0.0000000002649060 5.4088325744690184 5.4088325743691579 Si
atom 2.7044162943589058 0.0000000001560192 2.7044162872191571 Si
atom 2.7044162944589059 2.7044162873540190 5.4088325743861576 Si
atom 2.7044162945589059 5.4088325745520187 8.1132488615531582 Si
atom 5.4088325886529063 0.0000000002390192 5.4088325744031573 Si
atom 5.4088325887529063 2.7044162874370192 8.1132488615701579 Si
atom 5.4088325888529063 5.4088325746350181 10.8176651487371576 Si
atom 2.7044162943219057 2.7044162872520188 0.0000000001551574 Si
atom 2.7044162944219057 5.4088325744500185 2.7044162873221578 Si
atom 2.7044162945219057 8.1132488616480174 5.4088325744891579 Si
atom 5.4088325886159057 2.7044162873350186 2.7044162873391571 Si
atom 5.4088325887159057 5.4088325745330188 5.4088325745061576 Si
atom 5.4088325888159057 8.1132488617310177 8.1132488616731582 Si
atom 8.1132488829099056 2.7044162874180184 5.4088325745231574 Si
atom 8.1132488830099057 5.4088325746160191 8.1132488616901579 Si
atom 8.1132488831099057 8.1132488618140179 10.8176651488571576 Si
atom 5.4088325885789050 5.4088325744310177 0.0000000002751574 Si
atom 5.4088325886789050 8.1132488616290175 2.7044162874421578 Si
atom 5.4088325887789050 10.8176651488270164 5.4088325746091579 Si
atom 8.1132488828729059 5.4088325745140171 2.7044162874591571 Si
atom 8.1132488829729059 8.1132488617120178 5.4088325746261576 Si
atom 8.1132488830729059 10.8176651489100166 8.1132488617931582 Si
atom 10.8176651771669050 5.4088325745970174 5.4088325746431574 Si
atom 10.8176651772669050 8.1132488617950180 8.1132488618101579 Si
atom 10.8176651773669050 10.8176651489930169 10.8176651489771576 Si
atom 1.3522081470978402 1.3522081435419795 1.3522081435825901 Si
atom 1.3522081471978402 4.0566244307399799 4.0566244307495909 Si
atom 1.3522081472978402 6.7610407179379788 6.7610407179165906 Si
atom 4.0566244413918406 1.3522081436249795 4.0566244307665906 Si
atom 4.0566244414918406 4.0566244308229802 6.7610407179335903 Si
atom 4.0566244415918407 6.7610407180209791 9.4654570051005891 Si
atom 6.7610407356858406 1.3522081437079796 6.7610407179505900 Si
atom 6.7610407357858406 4.0566244309059805 9.4654570051175888 Si
atom 6.7610407358858406 6.7610407181039793 12.1698732922845885 Si
atom 4.0566244413548400 4.0566244307209791 1.3522081437025901 Si
atom 4.0566244414548400 6.7610407179189798 4.0566244308695909 Si
atom 4.0566244415548400 9.4654570051169777 6.7610407180365906 Si
atom 6.7610407356488409 4.0566244308039794 4.0566244308865906 Si
atom 6.7610407357488409 6.7610407180019791 6.7610407180535903 Si
atom 6.7610407358488409 9.4654570051999780 9.4654570052205891 Si
atom 9.4654570299428400 4.0566244308869788 6.7610407180705900 Si
atom 9.4654570300428400 6.7610407180849794 9.4654570052375888 Si
atom 9.4654570301428400 9.4654570052829783 12.1698732924045885 Si
atom 6.7610407356118403 6.7610407178999790 1.3522081438225901 Si
atom 6.7610407357118403 9.4654570050979796 4.0566244309895909 Si
atom 6.7610407358118403 12.1698732922959785 6.7610407181565906 Si
atom 9.4654570299058403 6.7610407179829783 4.0566244310065906 Si
atom 9.4654570300058403 9.4654570051809781 6.7610407181735903 Si
atom 9.4654570301058403 12.1698732923789787 9.4654570053405891 Si
atom 12.1698733241998411 6.7610407180659786 6.7610407181905900 Si
atom 12.1698733242998411 9.4654570052639784 9.4654570053575888 Si
atom 12.1698733243998412 12.1698732924619790 12.1698732925245885 Si
