#=======================================================
# FHI-aims file: geometry.in
# Created using the Atomic Simulation Environment (ASE)
# Tue Jun 10 15:14:42 2025
#=======================================================
lattice_vector 5.4088325884509993 0.0000000000639995 0.0000000001369997 
lattice_vector 0.0000000000629998 5.4088325742939993 0.0000000001030003 
lattice_vector 0.0000000001370002 0.0000000001020002 5.4088325742309999 
atom 0.0417773791593152 0.0537512767306864 0.1732082057299111 Si
atom -0.1085213087456868 2.5036608971475189 2.7905678762055648 Si
atom 2.6628319156425770 -0.0083407042321614 2.5341806603398762 Si
atom 2.7962419144358530 2.7900902572912636 -0.0083967218003918 Si
atom 1.4401432073218499 1.5009321140618321 1.2489040570020622 Si
atom 1.2127273074636857 4.0449797118841353 3.9474874163167533 Si
atom 4.0858573330631689 1.2162699595624997 4.2506402834889192 Si
atom 4.0954400175595858 4.1251542111149142 1.2899059461274969 Si
