#=======================================================
# FHI-aims file: ./geometry.in
# Created using the Atomic Simulation Environment (ASE)
# Tue Jun 10 15:06:37 2025
#=======================================================
lattice_vector 5.4088325884509993 0.0000000000639995 0.0000000001369997 
lattice_vector 0.0000000000629998 5.4088325742939993 0.0000000001030003 
lattice_vector 0.0000000001370002 0.0000000001020002 5.4088325742309999 
atom_frac 0.0177097100098058 -0.0260761927859717 0.0457639051460670 Si
atom_frac -0.0315474989453497 0.4854064861992799 0.4958062286451434 Si
atom_frac 0.4666713372735489 0.0385909598170624 0.4836230179090578 Si
atom_frac 0.5335324009451969 0.5145848972474698 -0.0296051505744207 Si
atom_frac 0.2654021420768104 0.2913028537178837 0.2270454458769655 Si
atom_frac 0.2512424616094372 0.7427626653611001 0.7523107742522581 Si
atom_frac 0.7679033354203948 0.2041394213838195 0.7816937863098227 Si
atom_frac 0.7290861115744474 0.7492889090272925 0.2433619924359923 Si
