#=======================================================
# FHI-aims file: geometry.in
# Created using the Atomic Simulation Environment (ASE)
# Tue Jun 10 15:15:36 2025
#=======================================================
lattice_vector 5.4088325884509993 0.0000000000639995 0.0000000001369997 
lattice_vector 0.0000000000629998 5.4088325742939993 0.0000000001030003 
lattice_vector 0.0000000001370002 0.0000000001020002 5.4088325742309999 
atom 0.1681026070372564 -0.2034037290250289 0.1802075232507548 Si
atom -0.0519551672120952 2.7484678635040356 2.6917201535834456 Si
atom 2.7702025086052799 0.1466093874823088 2.6518361105379302 Si
atom 2.6303511803609885 2.7787720029143745 -0.1006980804311857 Si
atom 1.2829153320763997 1.5029510562447128 1.2685150860111944 Si
atom 1.2842851867868894 4.0815568440652692 3.9520101952813316 Si
atom 4.1069443706895452 1.1929565485756499 4.2999201559963955 Si
atom 4.0356517478786156 3.9785877494570379 1.2829865791799338 Si
