#=======================================================
# FHI-aims file: ./geometry.in
# Created using the Atomic Simulation Environment (ASE)
# Tue Jun 10 14:55:34 2025
#=======================================================
lattice_vector 5.4088325884509993 0.0000000000639995 0.0000000001369997 
lattice_vector 0.0000000000629998 5.4088325742939993 0.0000000001030003 
lattice_vector 0.0000000001370002 0.0000000001020002 5.4088325742309999 
atom_frac 0.0014761687870254 -0.0141703624212172 0.0086049244604316 Si
atom_frac 0.0185477403781197 0.4952453145398109 0.4843479172284547 Si
atom_frac 0.5004316684922788 0.0410006949255547 0.5260818373308637 Si
atom_frac 0.4805923009338272 0.4979465851690328 -0.0002228728436351 Si
atom_frac 0.2610267798362649 0.2098569471637607 0.2365728310494660 Si
atom_frac 0.2428112290300796 0.7640153101415535 0.7244621737128217 Si
atom_frac 0.7763151314985565 0.2469683773046065 0.7510426029387491 Si
atom_frac 0.7187989810503876 0.7591371331255422 0.2691105861246646 Si
