#=======================================================
# FHI-aims file: ./geometry.in
# Created using the Atomic Simulation Environment (ASE)
# Wed Aug  5 14:09:14 2020
#=======================================================
lattice_vector 16.2555165440459994 -0.0000000000719992 0.0000000000660025 
lattice_vector -0.0000000000719992 16.2555163174499988 0.0000000000119975 
lattice_vector 0.0000000000660004 0.0000000000120009 16.2555163176479986 
atom_frac 0.0006151757775710 0.0000000000006667 0.9999999999965000 Si
atom_frac 0.0000000000018333 0.1666666666673333 0.1666666666631666 Si
atom_frac 0.0000000000018333 0.3333333333340000 0.3333333333298333 Si
atom_frac 0.0000000000018333 0.5000000000006667 0.4999999999964999 Si
atom_frac 0.0000000000018333 0.6666666666673335 0.6666666666631664 Si
atom_frac 0.0000000000018333 0.8333333333339999 0.8333333333298333 Si
atom_frac 0.1666666666685000 0.0000000000006667 0.1666666666631667 Si
atom_frac 0.1666666666685000 0.1666666666673333 0.3333333333298333 Si
atom_frac 0.1666666666684999 0.3333333333340001 0.4999999999965000 Si
atom_frac 0.1666666666684999 0.5000000000006668 0.6666666666631664 Si
atom_frac 0.1666666666684999 0.6666666666673333 0.8333333333298333 Si
atom_frac 0.1666666666684999 0.8333333333339999 0.9999999999965000 Si
atom_frac 0.3333333333351666 0.0000000000006667 0.3333333333298333 Si
atom_frac 0.3333333333351666 0.1666666666673334 0.4999999999965000 Si
atom_frac 0.3333333333351667 0.3333333333340000 0.6666666666631664 Si
atom_frac 0.3333333333351666 0.5000000000006667 0.8333333333298333 Si
atom_frac 0.3333333333351666 0.6666666666673334 0.9999999999964998 Si
atom_frac 0.3333333333351666 0.8333333333340002 0.1666666666631666 Si
atom_frac 0.5000000000018333 0.0000000000006667 0.4999999999964999 Si
atom_frac 0.5000000000018332 0.1666666666673333 0.6666666666631663 Si
atom_frac 0.5000000000018331 0.3333333333340001 0.8333333333298333 Si
atom_frac 0.5000000000018332 0.5000000000006667 0.9999999999964998 Si
atom_frac 0.5000000000018332 0.6666666666673335 0.1666666666631664 Si
atom_frac 0.5000000000018332 0.8333333333339998 0.3333333333298332 Si
atom_frac 0.6666666666684997 0.0000000000006667 0.6666666666631663 Si
atom_frac 0.6666666666684997 0.1666666666673333 0.8333333333298332 Si
atom_frac 0.6666666666684997 0.3333333333340001 0.9999999999964998 Si
atom_frac 0.6666666666684997 0.5000000000006668 0.1666666666631666 Si
atom_frac 0.6666666666684998 0.6666666666673332 0.3333333333298332 Si
atom_frac 0.6666666666684997 0.8333333333339999 0.4999999999964997 Si
atom_frac 0.8333333333351666 0.0000000000006667 0.8333333333298333 Si
atom_frac 0.8333333333351667 0.1666666666673333 0.9999999999964998 Si
atom_frac 0.8333333333351666 0.3333333333339999 0.1666666666631666 Si
atom_frac 0.8333333333351667 0.5000000000006666 0.3333333333298332 Si
atom_frac 0.8333333333351667 0.6666666666673334 0.4999999999964999 Si
atom_frac 0.8333333333351666 0.8333333333340002 0.6666666666631664 Si
atom_frac 0.1666666666685000 0.1666666666673333 0.9999999999965000 Si
atom_frac 0.1666666666684999 0.3333333333340001 0.1666666666631666 Si
atom_frac 0.1666666666685000 0.5000000000006667 0.3333333333298333 Si
atom_frac 0.1666666666684999 0.6666666666673333 0.4999999999964999 Si
atom_frac 0.1666666666685000 0.8333333333339999 0.6666666666631667 Si
atom_frac 0.1666666666684999 0.0000000000006666 0.8333333333298331 Si
atom_frac 0.3333333333351666 0.1666666666673334 0.1666666666631666 Si
atom_frac 0.3333333333351667 0.3333333333340000 0.3333333333298333 Si
atom_frac 0.3333333333351667 0.5000000000006667 0.4999999999965000 Si
atom_frac 0.3333333333351666 0.6666666666673334 0.6666666666631667 Si
atom_frac 0.3333333333351667 0.8333333333340002 0.8333333333298331 Si
atom_frac 0.3333333333351666 0.0000000000006666 0.9999999999964998 Si
atom_frac 0.5000000000018335 0.1666666666673333 0.3333333333298334 Si
atom_frac 0.5000000000018332 0.3333333333340001 0.4999999999965000 Si
atom_frac 0.5000000000018332 0.5000000000006667 0.6666666666631667 Si
atom_frac 0.5000000000018333 0.6666666666673335 0.8333333333298331 Si
atom_frac 0.5000000000018333 0.8333333333339999 0.9999999999964998 Si
atom_frac 0.5000000000018333 0.0000000000006666 0.1666666666631666 Si
atom_frac 0.6666666666684998 0.1666666666673334 0.4999999999964999 Si
atom_frac 0.6666666666684996 0.3333333333340001 0.6666666666631665 Si
atom_frac 0.6666666666684996 0.5000000000006668 0.8333333333298331 Si
atom_frac 0.6666666666684998 0.6666666666673333 0.9999999999964998 Si
atom_frac 0.6666666666684997 0.8333333333339999 0.1666666666631664 Si
atom_frac 0.6666666666684998 0.0000000000006666 0.3333333333298332 Si
atom_frac 0.8333333333351666 0.1666666666673333 0.6666666666631665 Si
atom_frac 0.8333333333351663 0.3333333333340000 0.8333333333298329 Si
atom_frac 0.8333333333351665 0.5000000000006667 0.9999999999964998 Si
atom_frac 0.8333333333351666 0.6666666666673334 0.1666666666631667 Si
atom_frac 0.8333333333351666 0.8333333333340001 0.3333333333298332 Si
atom_frac 0.8333333333351666 0.0000000000006666 0.4999999999964997 Si
atom_frac 0.0000000000018332 0.1666666666673333 0.8333333333298331 Si
atom_frac 0.0000000000018332 0.3333333333340000 0.9999999999964998 Si
atom_frac 0.0000000000018332 0.5000000000006667 0.1666666666631666 Si
atom_frac 0.0000000000018332 0.6666666666673334 0.3333333333298331 Si
atom_frac 0.0000000000018332 0.8333333333339999 0.4999999999964999 Si
atom_frac 0.0000000000018332 0.0000000000006666 0.6666666666631667 Si
atom_frac 0.3333333333351666 0.3333333333340000 0.9999999999965000 Si
atom_frac 0.3333333333351666 0.5000000000006666 0.1666666666631667 Si
atom_frac 0.3333333333351666 0.6666666666673334 0.3333333333298333 Si
atom_frac 0.3333333333351666 0.8333333333340001 0.4999999999964999 Si
atom_frac 0.3333333333351666 0.0000000000006666 0.6666666666631667 Si
atom_frac 0.3333333333351666 0.1666666666673332 0.8333333333298333 Si
atom_frac 0.5000000000018332 0.3333333333340000 0.1666666666631667 Si
atom_frac 0.5000000000018333 0.5000000000006666 0.3333333333298333 Si
atom_frac 0.5000000000018334 0.6666666666673334 0.4999999999964999 Si
atom_frac 0.5000000000018333 0.8333333333339999 0.6666666666631667 Si
atom_frac 0.5000000000018332 0.0000000000006666 0.8333333333298333 Si
atom_frac 0.5000000000018332 0.1666666666673331 0.9999999999964998 Si
atom_frac 0.6666666666684997 0.3333333333340000 0.3333333333298333 Si
atom_frac 0.6666666666684997 0.5000000000006666 0.4999999999964999 Si
atom_frac 0.6666666666684998 0.6666666666673333 0.6666666666631667 Si
atom_frac 0.6666666666684997 0.8333333333340001 0.8333333333298333 Si
atom_frac 0.6666666666684997 0.0000000000006666 0.9999999999965000 Si
atom_frac 0.6666666666684997 0.1666666666673331 0.1666666666631666 Si
atom_frac 0.8333333333351665 0.3333333333339999 0.4999999999964998 Si
atom_frac 0.8333333333351663 0.5000000000006666 0.6666666666631665 Si
atom_frac 0.8333333333351665 0.6666666666673335 0.8333333333298333 Si
atom_frac 0.8333333333351665 0.8333333333340001 0.9999999999964998 Si
atom_frac 0.8333333333351663 0.0000000000006666 0.1666666666631664 Si
atom_frac 0.8333333333351665 0.1666666666673331 0.3333333333298331 Si
atom_frac 0.0000000000018332 0.3333333333339999 0.6666666666631665 Si
atom_frac 0.0000000000018332 0.5000000000006667 0.8333333333298332 Si
atom_frac 0.0000000000018332 0.6666666666673334 0.9999999999965000 Si
atom_frac 0.0000000000018332 0.8333333333339999 0.1666666666631666 Si
atom_frac 0.0000000000018332 0.0000000000006666 0.3333333333298332 Si
atom_frac 0.0000000000018332 0.1666666666673331 0.4999999999964996 Si
atom_frac 0.1666666666684999 0.3333333333340000 0.8333333333298333 Si
atom_frac 0.1666666666684999 0.5000000000006666 0.9999999999964998 Si
atom_frac 0.1666666666684999 0.6666666666673333 0.1666666666631667 Si
atom_frac 0.1666666666684999 0.8333333333339999 0.3333333333298332 Si
atom_frac 0.1666666666684999 0.0000000000006666 0.4999999999964998 Si
atom_frac 0.1666666666684999 0.1666666666673331 0.6666666666631667 Si
atom_frac 0.0833333333315000 0.0833333333326667 0.0833333333368333 Si
atom_frac 0.0833333333315000 0.2499999999993333 0.2500000000035000 Si
atom_frac 0.0833333333315000 0.4166666666659999 0.4166666666701667 Si
atom_frac 0.0833333333315000 0.5833333333326667 0.5833333333368333 Si
atom_frac 0.0833333333315000 0.7499999999993335 0.7500000000035001 Si
atom_frac 0.0833333333314999 0.9166666666660002 0.9166666666701666 Si
atom_frac 0.2499999999981667 0.0833333333326667 0.2500000000035000 Si
atom_frac 0.2499999999981667 0.2499999999993333 0.4166666666701667 Si
atom_frac 0.2499999999981667 0.4166666666660001 0.5833333333368333 Si
atom_frac 0.2499999999981666 0.5833333333326667 0.7500000000035000 Si
atom_frac 0.2499999999981666 0.7499999999993334 0.9166666666701665 Si
atom_frac 0.2499999999981666 0.9166666666660001 0.0833333333368333 Si
atom_frac 0.4166666666648332 0.0833333333326667 0.4166666666701667 Si
atom_frac 0.4166666666648332 0.2499999999993334 0.5833333333368333 Si
atom_frac 0.4166666666648333 0.4166666666660000 0.7500000000035000 Si
atom_frac 0.4166666666648332 0.5833333333326667 0.9166666666701664 Si
atom_frac 0.4166666666648332 0.7499999999993333 0.0833333333368333 Si
atom_frac 0.4166666666648332 0.9166666666660002 0.2500000000035001 Si
atom_frac 0.5833333333314999 0.0833333333326667 0.5833333333368333 Si
atom_frac 0.5833333333314999 0.2499999999993333 0.7500000000035000 Si
atom_frac 0.5833333333315001 0.4166666666659999 0.9166666666701666 Si
atom_frac 0.5833333333314998 0.5833333333326667 0.0833333333368333 Si
atom_frac 0.5833333333314999 0.7499999999993335 0.2500000000035001 Si
atom_frac 0.5833333333314998 0.9166666666660002 0.4166666666701666 Si
atom_frac 0.7499999999981666 0.0833333333326667 0.7500000000034999 Si
atom_frac 0.7499999999981667 0.2499999999993333 0.9166666666701665 Si
atom_frac 0.7499999999981666 0.4166666666660001 0.0833333333368331 Si
atom_frac 0.7499999999981666 0.5833333333326668 0.2500000000034999 Si
atom_frac 0.7499999999981665 0.7499999999993334 0.4166666666701666 Si
atom_frac 0.7499999999981666 0.9166666666660001 0.5833333333368333 Si
atom_frac 0.9166666666648332 0.0833333333326666 0.9166666666701666 Si
atom_frac 0.9166666666648331 0.2499999999993334 0.0833333333368333 Si
atom_frac 0.9166666666648332 0.4166666666660000 0.2500000000034999 Si
atom_frac 0.9166666666648331 0.5833333333326667 0.4166666666701666 Si
atom_frac 0.9166666666648331 0.7499999999993333 0.5833333333368333 Si
atom_frac 0.9166666666648331 0.9166666666660001 0.7500000000034999 Si
atom_frac 0.2499999999981667 0.2499999999993333 0.0833333333368333 Si
atom_frac 0.2499999999981666 0.4166666666660000 0.2500000000035000 Si
atom_frac 0.2499999999981667 0.5833333333326667 0.4166666666701667 Si
atom_frac 0.2499999999981667 0.7499999999993334 0.5833333333368331 Si
atom_frac 0.2499999999981666 0.9166666666660001 0.7500000000035001 Si
atom_frac 0.2499999999981667 0.0833333333326667 0.9166666666701667 Si
atom_frac 0.4166666666648333 0.2499999999993334 0.2500000000035000 Si
atom_frac 0.4166666666648333 0.4166666666660001 0.4166666666701667 Si
atom_frac 0.4166666666648333 0.5833333333326667 0.5833333333368331 Si
atom_frac 0.4166666666648333 0.7499999999993333 0.7500000000035000 Si
atom_frac 0.4166666666648332 0.9166666666660001 0.9166666666701667 Si
atom_frac 0.4166666666648333 0.0833333333326667 0.0833333333368333 Si
atom_frac 0.5833333333314999 0.2499999999993333 0.4166666666701667 Si
atom_frac 0.5833333333314999 0.4166666666659999 0.5833333333368333 Si
atom_frac 0.5833333333314998 0.5833333333326667 0.7500000000034999 Si
atom_frac 0.5833333333314999 0.7499999999993333 0.9166666666701666 Si
atom_frac 0.5833333333314998 0.9166666666660003 0.0833333333368333 Si
atom_frac 0.5833333333314999 0.0833333333326667 0.2500000000035000 Si
atom_frac 0.7499999999981667 0.2499999999993333 0.5833333333368333 Si
atom_frac 0.7499999999981666 0.4166666666660000 0.7500000000034999 Si
atom_frac 0.7499999999981666 0.5833333333326667 0.9166666666701666 Si
atom_frac 0.7499999999981665 0.7499999999993334 0.0833333333368333 Si
atom_frac 0.7499999999981666 0.9166666666660001 0.2500000000035000 Si
atom_frac 0.7499999999981666 0.0833333333326667 0.4166666666701666 Si
atom_frac 0.9166666666648331 0.2499999999993334 0.7500000000034998 Si
atom_frac 0.9166666666648331 0.4166666666660000 0.9166666666701665 Si
atom_frac 0.9166666666648329 0.5833333333326668 0.0833333333368331 Si
atom_frac 0.9166666666648330 0.7499999999993333 0.2500000000034998 Si
atom_frac 0.9166666666648330 0.9166666666660001 0.4166666666701666 Si
atom_frac 0.9166666666648331 0.0833333333326667 0.5833333333368333 Si
atom_frac 0.0833333333314998 0.2499999999993333 0.9166666666701666 Si
atom_frac 0.0833333333314998 0.4166666666659999 0.0833333333368333 Si
atom_frac 0.0833333333314998 0.5833333333326667 0.2500000000034999 Si
atom_frac 0.0833333333314998 0.7499999999993333 0.4166666666701666 Si
atom_frac 0.0833333333314999 0.9166666666660003 0.5833333333368332 Si
atom_frac 0.0833333333314999 0.0833333333326667 0.7500000000034999 Si
atom_frac 0.4166666666648333 0.4166666666660001 0.0833333333368333 Si
atom_frac 0.4166666666648334 0.5833333333326668 0.2500000000035000 Si
atom_frac 0.4166666666648333 0.7499999999993333 0.4166666666701666 Si
atom_frac 0.4166666666648333 0.9166666666660001 0.5833333333368333 Si
atom_frac 0.4166666666648333 0.0833333333326667 0.7500000000035001 Si
atom_frac 0.4166666666648333 0.2499999999993335 0.9166666666701666 Si
atom_frac 0.5833333333315001 0.4166666666660001 0.2500000000035000 Si
atom_frac 0.5833333333314999 0.5833333333326667 0.4166666666701666 Si
atom_frac 0.5833333333315001 0.7499999999993333 0.5833333333368333 Si
atom_frac 0.5833333333315001 0.9166666666660003 0.7500000000034998 Si
atom_frac 0.5833333333315001 0.0833333333326667 0.9166666666701666 Si
atom_frac 0.5833333333314999 0.2499999999993334 0.0833333333368333 Si
atom_frac 0.7499999999981667 0.4166666666660002 0.4166666666701666 Si
atom_frac 0.7499999999981667 0.5833333333326667 0.5833333333368333 Si
atom_frac 0.7499999999981667 0.7499999999993334 0.7500000000035000 Si
atom_frac 0.7499999999981668 0.9166666666659999 0.9166666666701665 Si
atom_frac 0.7499999999981666 0.0833333333326667 0.0833333333368333 Si
atom_frac 0.7499999999981667 0.2499999999993334 0.2500000000035001 Si
atom_frac 0.9166666666648332 0.4166666666660001 0.5833333333368333 Si
atom_frac 0.9166666666648331 0.5833333333326668 0.7500000000035000 Si
atom_frac 0.9166666666648332 0.7499999999993332 0.9166666666701665 Si
atom_frac 0.9166666666648331 0.9166666666660001 0.0833333333368333 Si
atom_frac 0.9166666666648331 0.0833333333326667 0.2500000000035001 Si
atom_frac 0.9166666666648331 0.2499999999993335 0.4166666666701665 Si
atom_frac 0.0833333333314999 0.4166666666660001 0.7500000000034998 Si
atom_frac 0.0833333333314998 0.5833333333326666 0.9166666666701664 Si
atom_frac 0.0833333333314998 0.7499999999993333 0.0833333333368331 Si
atom_frac 0.0833333333314998 0.9166666666660003 0.2500000000034999 Si
atom_frac 0.0833333333314999 0.0833333333326667 0.4166666666701666 Si
atom_frac 0.0833333333314999 0.2499999999993334 0.5833333333368333 Si
atom_frac 0.2499999999981666 0.4166666666660002 0.9166666666701665 Si
atom_frac 0.2499999999981666 0.5833333333326667 0.0833333333368333 Si
atom_frac 0.2499999999981665 0.7499999999993334 0.2500000000034999 Si
atom_frac 0.2499999999981665 0.9166666666660001 0.4166666666701666 Si
atom_frac 0.2499999999981666 0.0833333333326667 0.5833333333368333 Si
atom_frac 0.2499999999981665 0.2499999999993334 0.7500000000034996 Si
