#=======================================================
# FHI-aims file: ./geometry.in
# Created using the Atomic Simulation Environment (ASE)
# Tue Jun 10 14:20:57 2025
#=======================================================
lattice_vector 5.4088325884509993 0.0000000000639995 0.0000000001369997 
lattice_vector 0.0000000000629998 5.4088325742939993 0.0000000001030003 
lattice_vector 0.0000000001370002 0.0000000001020002 5.4088325742309999 
atom_frac 0.0031299820187536 -0.0089997154308597 -0.0187219027045720 Si
atom_frac 0.0103610743251226 0.4988920559543013 0.4980437777956992 Si
atom_frac 0.4973229781644850 0.0066059035704211 0.5035091399510812 Si
atom_frac 0.4974680039788923 0.4977516302565046 0.0118156110991003 Si
atom_frac 0.2563068287703114 0.2576967878837417 0.2562069890783863 Si
atom_frac 0.2535575623727157 0.7470662690555447 0.7504556190772348 Si
atom_frac 0.7401720863854241 0.2545852039546872 0.7644738310364322 Si
atom_frac 0.7416814840050686 0.7464018647705311 0.2342169346662879 Si
