#=======================================================
# FHI-aims file: geometry.in
# Created using the Atomic Simulation Environment (ASE)
# Tue Jun 10 15:01:51 2025
#=======================================================
lattice_vector 5.4088325884509993 0.0000000000639995 0.0000000001369997 
lattice_vector 0.0000000000629998 5.4088325742939993 0.0000000001030003 
lattice_vector 0.0000000001370002 0.0000000001020002 5.4088325742309999 
atom -0.0008116805482289 0.0136260335303594 0.0495985674449005 Si
atom 0.0129975897470826 2.8433954758258548 2.6887741876769287 Si
atom 2.7034714694717894 -0.0594887565840948 2.6580143476194293 Si
atom 2.6356404846874417 2.5909599888619255 -0.0982228784757736 Si
atom 1.3599341330261296 1.3028588799184282 1.4067371303410610 Si
atom 1.3415892954067108 4.1228220699470315 4.1773657615268158 Si
atom 4.1592759720012484 1.3966950601514987 4.0121489538832327 Si
atom 4.0144005020109281 4.0156289717844187 1.3320816533987443 Si
