#=======================================================
# FHI-aims file: geometry.in.supercell.0600K.024
# Created using the Atomic Simulation Environment (ASE)
# Tue Jun 10 14:20:54 2025

# Additional information:
#  created from force constants
#  T = 600.0 K
#  quantum:             True
#  deterministic:       False
#  plus_minus:          False
#  gauge_eigenvectors:  False
#  Random seed:         2077075479
#  Sample number:       25
#  Harmonic E_pot:        0.654eV (632.41K)
#=======================================================
lattice_vector 5.4088325884509993 0.0000000000639995 0.0000000001369997 
lattice_vector 0.0000000000629998 5.4088325742939993 0.0000000001030003 
lattice_vector 0.0000000001370002 0.0000000001020002 5.4088325742309999 
atom 0.2229851938066864 -0.1274975749979348 0.0718392837985853 Si
    velocity 3.7911320598780534 5.0832250375481403 -0.3382484300800079
atom -0.2419909817590081 2.7702181503241290 2.6982447017082514 Si
    velocity -6.5368106871967138 -8.5535168304046163 0.9653322153028437
atom 2.7173191417750862 0.1527685377504283 2.7481372907127239 Si
    velocity 3.3149938902776817 3.6806403465764883 -3.9221739472219252
atom 2.6861962314687000 2.5327086307983873 -0.0098415127885686 Si
    velocity -5.0124714178626100 0.8373530438835601 -0.7528349081794812
atom 1.2140077396300690 1.4677005532199840 1.3912237631540609 Si
    velocity -1.8717856722505468 5.2277563167678149 1.3006102709197538
atom 1.4837262569825200 4.0171927910916203 4.0260970567907286 Si
    velocity 0.7674174791320416 -1.4936598578563607 -5.4080507915474652
atom 4.2012379030535332 1.2339679365658047 4.0478429339001867 Si
    velocity 4.0941049983975173 -6.6939134170470540 8.4169271277551410
atom 3.9430162809282994 4.1794386988326577 1.2529542061256549 Si
    velocity 1.4534193496245755 1.9121153605320274 -0.2615615369488588
