#=======================================================
# FHI-aims file: geometry.in.supercell.0600K.027
# Created using the Atomic Simulation Environment (ASE)
# Tue Jun 10 14:20:54 2025

# Additional information:
#  created from force constants
#  T = 600.0 K
#  quantum:             True
#  deterministic:       False
#  plus_minus:          False
#  gauge_eigenvectors:  False
#  Random seed:         2077075479
#  Sample number:       28
#  Harmonic E_pot:        0.790eV (764.03K)
#=======================================================
lattice_vector 5.4088325884509993 0.0000000000639995 0.0000000001369997 
lattice_vector 0.0000000000629998 5.4088325742939993 0.0000000001030003 
lattice_vector 0.0000000001370002 0.0000000001020002 5.4088325742309999 
atom -0.1637466064257690 -0.0263355193379171 -0.2515370700484839 Si
    velocity -2.2165290713093571 -3.9528944586031356 -5.1289866869199869
atom 0.0237917175673921 2.8181549901902061 2.5786347316574845 Si
    velocity 6.2853279104313717 4.8609747036052289 -3.2504279030949692
atom 2.8122722724873368 0.0000622119860769 2.8501259821426852 Si
    velocity -2.0767002073630016 -2.0891630090760884 1.2659528191142733
atom 2.6404278636915564 2.5794912802551817 0.1202350155343340 Si
    velocity -0.2723168361766832 1.8837879278320500 8.8267972289638372
atom 1.3243946618419424 1.1451937028178734 1.4438274645528109 Si
    velocity 2.2625094933464629 -1.0757385967467830 3.1948012346043235
atom 1.3952439935637262 4.0098712837249728 4.1373315460401843 Si
    velocity -11.0529079412811821 2.7649819880170510 0.1773365262963898
atom 4.2089303507870399 1.5043368384256137 4.0832028630131312 Si
    velocity 0.7923215898354149 -0.3227358124986938 -4.8075911974634735
atom 3.9851835121956443 4.1957229354140733 1.2646771905155427 Si
    velocity 6.2782950625169747 -2.0692127425296292 -0.2778820215003951
