#=======================================================
# FHI-aims file: geometry.in.supercell.0600K.018
# Created using the Atomic Simulation Environment (ASE)
# Tue Jun 10 14:20:54 2025

# Additional information:
#  created from force constants
#  T = 600.0 K
#  quantum:             True
#  deterministic:       False
#  plus_minus:          False
#  gauge_eigenvectors:  False
#  Random seed:         2077075479
#  Sample number:       19
#  Harmonic E_pot:        0.623eV (602.28K)
#=======================================================
lattice_vector 5.4088325884509993 0.0000000000639995 0.0000000001369997 
lattice_vector 0.0000000000629998 5.4088325742939993 0.0000000001030003 
lattice_vector 0.0000000001370002 0.0000000001020002 5.4088325742309999 
atom -0.0669231234587824 0.0412613766019914 0.0489658856572893 Si
    velocity 0.4303331937387959 4.0241284698287609 1.8108417580227696
atom 0.1215284598301693 2.6434065807402138 2.5711811972813563 Si
    velocity 4.9708768316880505 -2.1656554916509423 2.5719300275702497
atom 2.8154659977956151 -0.0708280792061409 2.8108522616804716 Si
    velocity 6.9991888376333469 -5.9819805883996588 9.0906227024511317
atom 2.4893255690665206 2.8309907476284901 0.0298031632029325 Si
    velocity -8.0057646178524937 0.3901867276406270 -3.7720121478489297
atom 1.3992655219560088 1.0698850884155910 1.3076216662455895 Si
    velocity -1.7871538727557594 2.6068751717178213 -4.5687853832003738
atom 1.3092470894362802 4.1659658817141469 3.9702121515547293 Si
    velocity 0.0033159723644236 -3.3526785295955071 3.6250399717599584
atom 4.0997641375106726 1.4975488401888375 4.1198539776059029 Si
    velocity -1.1071965086500657 3.2629939657445233 -1.5910186216138145
atom 4.0588241136979377 4.0482672872027434 1.3680074201839763 Si
    velocity -1.5035998361662972 1.2161302747143761 -7.1666183071409906
