#=======================================================
# FHI-aims file: geometry.in.supercell.0600K.023
# Created using the Atomic Simulation Environment (ASE)
# Tue Jun 10 14:20:54 2025

# Additional information:
#  created from force constants
#  T = 600.0 K
#  quantum:             True
#  deterministic:       False
#  plus_minus:          False
#  gauge_eigenvectors:  False
#  Random seed:         2077075479
#  Sample number:       24
#  Harmonic E_pot:        0.491eV (475.28K)
#=======================================================
lattice_vector 5.4088325884509993 0.0000000000639995 0.0000000001369997 
lattice_vector 0.0000000000629998 5.4088325742939993 0.0000000001030003 
lattice_vector 0.0000000001370002 0.0000000001020002 5.4088325742309999 
atom 0.0151043063091771 -0.0295771228319699 0.0438384893141887 Si
    velocity 0.9427449753533430 -1.3608027938696337 1.9956059640057007
atom -0.1014959655663289 2.5724342337861761 2.8901176251725458 Si
    velocity -3.9035796163062217 2.5634834948382661 1.9517354864896725
atom 2.8613223481020449 0.0150183136084477 2.5715410092454740 Si
    velocity -2.5502914201557836 0.8522971879717750 5.2067837911082826
atom 2.6219790282978601 2.8070612551495464 -0.0961557377053686 Si
    velocity -2.5299419556113532 1.7776532708426611 -3.0414908160954219
atom 1.3924795162086157 1.4523494330530984 1.3853500223023523 Si
    velocity 2.7636282268292183 5.0178263170888640 -0.2671935640718903
atom 1.3903246674199345 4.1672365202379780 3.9882302933633582 Si
    velocity 1.2775216134006731 6.0085695630620206 -2.1493170517155624
atom 3.8714633287015316 1.2532411599122839 4.1391775994392637 Si
    velocity 9.1674894151502055 -11.7194425272855423 -2.4769057678014592
atom 4.1753205364221122 3.9887339305694121 1.3043984222625096 Si
    velocity -5.1675712386600789 -3.1395845126484079 -1.2192180419193228
