#=======================================================
# FHI-aims file: geometry.in.supercell.0600K.002
# Created using the Atomic Simulation Environment (ASE)
# Tue Jun 10 14:20:54 2025

# Additional information:
#  created from force constants
#  T = 600.0 K
#  quantum:             True
#  deterministic:       False
#  plus_minus:          False
#  gauge_eigenvectors:  False
#  Random seed:         2077075479
#  Sample number:       3
#  Harmonic E_pot:        0.719eV (695.74K)
#=======================================================
lattice_vector 5.4088325884509993 0.0000000000639995 0.0000000001369997 
lattice_vector 0.0000000000629998 5.4088325742939993 0.0000000001030003 
lattice_vector 0.0000000001370002 0.0000000001020002 5.4088325742309999 
atom 0.0373352474301556 0.0533770726163248 0.1787617531814409 Si
    velocity -3.2739709295566701 -1.7874254504831382 -0.4927256107819587
atom -0.1317184311582376 2.6853283972774973 2.7107460915306731 Si
    velocity -3.7889051648595005 1.6706106542851329 8.1112582902187516
atom 2.7777020995117661 -0.1213637741160700 2.6993005262570922 Si
    velocity -1.7057040342688130 4.9212626284071179 3.4259832818872820
atom 2.6755821864897120 2.6339768762535298 -0.2398281945324583 Si
    velocity 3.7829153111163287 -2.1035473741938251 3.7487932289857562
atom 1.4822885403002228 1.5084585779549506 1.5032726776677217 Si
    velocity 6.5175219715891393 2.6314030785313531 1.1617665759197506
atom 1.1807350775293650 4.1690556536228387 4.0726709149920168 Si
    velocity -1.8065634671969528 -4.9506535592355521 -3.9548858034215648
atom 4.2304919198243489 1.3323036153482501 3.9847726051699408 Si
    velocity -1.7528993461785540 -1.8480785224399006 0.2704173125845492
atom 3.9740811258955313 3.9653613048391039 1.3168013491514594 Si
    velocity 2.0276056593550238 1.4664285451288126 -12.2706072753925657
