#=======================================================
# FHI-aims file: geometry.in
# Created using the Atomic Simulation Environment (ASE)
# Tue Jun 10 15:15:19 2025
#=======================================================
lattice_vector 5.4088325884509993 0.0000000000639995 0.0000000001369997 
lattice_vector 0.0000000000629998 5.4088325742939993 0.0000000001030003 
lattice_vector 0.0000000001370002 0.0000000001020002 5.4088325742309999 
atom -0.1634372982928611 0.0466937349518495 0.0266064767756071 Si
atom 0.1008748313779659 2.6592011671700675 2.8182908917787723 Si
atom 2.7147376428519796 -0.0349415224958722 2.6178044363366650 Si
atom 2.7062162147086690 2.7744143268641839 0.0804706212128149 Si
atom 1.3629050325697698 1.3220382139142921 1.2729161903851602 Si
atom 1.4482150117129902 4.0832170309625226 4.0070969117752542 Si
atom 4.0128797043783404 1.3835906055827336 4.0093243200001885 Si
atom 4.0441066265159042 3.9922841663323481 1.3939878751474144 Si
