#=======================================================
# FHI-aims file: geometry.in
# Created using the Atomic Simulation Environment (ASE)
# Tue Jun 10 14:31:07 2025
#=======================================================
lattice_vector 5.4088325884509993 0.0000000000639995 0.0000000001369997 
lattice_vector 0.0000000000629998 5.4088325742939993 0.0000000001030003 
lattice_vector 0.0000000001370002 0.0000000001020002 5.4088325742309999 
atom -0.0247922891198683 -0.0658692004165967 -0.0042772716973917 Si
atom -0.0499422308802809 2.7418726924918557 2.7181912903778302 Si
atom 2.6240967741298395 -0.0452454794655614 2.6840075551447176 Si
atom 2.7452190039336486 2.6881724462042382 -0.0433064539849918 Si
atom 1.3434653227989775 1.3741461990636783 1.3350823838555961 Si
atom 1.3873560736910182 4.0534199827048267 4.1084036015261880 Si
atom 4.1001981558788749 1.3052171635564043 4.0959758311065873 Si
atom 4.1008969552176620 4.1747839194747440 1.3324207870814535 Si
