#=======================================================
# FHI-aims file: ./geometry.in
# Created using the Atomic Simulation Environment (ASE)
# Tue Jun 10 14:38:55 2025
#=======================================================
lattice_vector 5.4088325884509993 0.0000000000639995 0.0000000001369997 
lattice_vector 0.0000000000629998 5.4088325742939993 0.0000000001030003 
lattice_vector 0.0000000001370002 0.0000000001020002 5.4088325742309999 
atom_frac -0.0011881041889201 0.0121761761544816 -0.0095404126726219 Si
atom_frac -0.0053507372417463 0.4824016265518125 0.4954842536705831 Si
atom_frac 0.4988308866461430 -0.0082549893627170 0.5083600895436484 Si
atom_frac 0.5017387513036570 0.5052981994053510 0.0118165209555176 Si
atom_frac 0.2557788980567294 0.2421105235421275 0.2508878026143919 Si
atom_frac 0.2496892273900650 0.7517520716158421 0.7398198523586557 Si
atom_frac 0.7397052391702817 0.2567085791834227 0.7570213178018257 Si
atom_frac 0.7607958388480026 0.7578078129310297 0.2461505757270345 Si
