#=======================================================
# FHI-aims file: ./geometry.in
# Created using the Atomic Simulation Environment (ASE)
# Tue Jun 10 14:51:58 2025
#=======================================================
lattice_vector 5.4088325884509993 0.0000000000639995 0.0000000001369997 
lattice_vector 0.0000000000629998 5.4088325742939993 0.0000000001030003 
lattice_vector 0.0000000001370002 0.0000000001020002 5.4088325742309999 
atom_frac 0.0178839031220855 -0.0068209298036269 0.0132994456837346 Si
atom_frac -0.0214162728092205 0.5024942427507171 0.5309579614741939 Si
atom_frac 0.4796901843246768 0.0042115015089012 0.4598545958433402 Si
atom_frac 0.5216550404522375 0.4992325931092431 0.0004676606362743 Si
atom_frac 0.2311091172169282 0.2688438077925553 0.2498698678978746 Si
atom_frac 0.2676148947060605 0.7628661591718860 0.7532045823199077 Si
atom_frac 0.7534068350044651 0.2194376747701200 0.7366032273640584 Si
atom_frac 0.7500562979745199 0.7497349507018831 0.2557426587797376 Si
