#=======================================================
# FHI-aims file: geometry.in.supercell
# Created using the Atomic Simulation Environment (ASE)
# Tue Jun 10 17:52:05 2025

# Additional information:
#  Number of atoms:     8
#=======================================================
lattice_vector 5.2090248247871997 -0.0000000000000001 -0.0000000000000001 
lattice_vector -0.0000000000000001 5.2090248247871997 0.0000000000000001 
lattice_vector 0.0000000000000001 0.0000000000000001 5.2090248247871997 
atom 0.0000000000000000 0.0000000000000000 0.0000000000000000 Si
atom 0.0000000000000000 2.6045124123935999 2.6045124123935999 Si
atom 2.6045124123935999 0.0000000000000000 2.6045124123935999 Si
atom 2.6045124123935999 2.6045124123935999 0.0000000000000000 Si
atom 1.3022562061967997 1.3022562061967997 1.3022562061967999 Si
atom 1.3022562061967997 3.9067686185903998 3.9067686185903998 Si
atom 3.9067686185903998 1.3022562061967997 3.9067686185903998 Si
atom 3.9067686185903998 3.9067686185903998 1.3022562061967999 Si
