#=======================================================
# FHI-aims file: geometry.in.primitive
# Created using the Atomic Simulation Environment (ASE)
# Tue Jun 10 17:52:05 2025

# Additional information:
#  Number of atoms:     2
#=======================================================
lattice_vector 0.0000000000000000 2.6045124123935999 2.6045124123935999 
lattice_vector 2.6045124123935999 0.0000000000000000 2.6045124123935999 
lattice_vector 2.6045124123935999 2.6045124123935999 0.0000000000000000 
atom 0.0000000000000000 0.0000000000000000 0.0000000000000000 Si
atom 1.3022562061967999 1.3022562061967999 1.3022562061967999 Si
