#=======================================================
# FHI-aims file: ./geometry.in
# Created using the Atomic Simulation Environment (ASE)
# Tue Jun 10 15:21:59 2025
#=======================================================
lattice_vector 5.4088325884509993 0.0000000000639995 0.0000000001369997 
lattice_vector 0.0000000000629998 5.4088325742939993 0.0000000001030003 
lattice_vector 0.0000000001370002 0.0000000001020002 5.4088325742309999 
atom_frac 0.0264277255542823 -0.0143930945865410 -0.0044406013284338 Si
atom_frac -0.0275940342023105 0.5449997351974419 0.4960129232105341 Si
atom_frac 0.5168100515555982 0.0454587175792785 0.5013337871418903 Si
atom_frac 0.4938121980448900 0.4313065600076158 0.0118599405233705 Si
atom_frac 0.2133282462981544 0.2351242374998459 0.2841703081800271 Si
atom_frac 0.2989375941846385 0.7435194719662157 0.7594782436930416 Si
atom_frac 0.7660514953283667 0.2490275276892746 0.7375933566128274 Si
atom_frac 0.7122267232605939 0.7649568446262455 0.2139920419640706 Si
