#=======================================================
# FHI-aims file: ./geometry.in
# Created using the Atomic Simulation Environment (ASE)
# Tue Jun 10 14:22:43 2025
#=======================================================
lattice_vector 5.4088325884509993 0.0000000000639995 0.0000000001369997 
lattice_vector 0.0000000000629998 5.4088325742939993 0.0000000001030003 
lattice_vector 0.0000000001370002 0.0000000001020002 5.4088325742309999 
atom_frac 0.0097185282634523 0.0071308507818883 0.0107499216539268 Si
atom_frac -0.0003272711271947 0.5081960377481388 0.4906894001320481 Si
atom_frac 0.5099973306375815 -0.0004813998549310 0.5125424139382769 Si
atom_frac 0.4949226192194391 0.5021643360238127 -0.0122112642478753 Si
atom_frac 0.2516386652350992 0.2517272064508461 0.2563927984566733 Si
atom_frac 0.2412384180932722 0.7472493841400706 0.7464800900777553 Si
atom_frac 0.7440574848030027 0.2408641183748744 0.7519544371505679 Si
atom_frac 0.7487542249136304 0.7431494662911373 0.2434022028390093 Si
