#=======================================================
# FHI-aims file: ./geometry.in
# Created using the Atomic Simulation Environment (ASE)
# Tue Jun 10 17:55:49 2025
#=======================================================
lattice_vector 5.5345888763364002 -0.0000000000000002 -0.0000000000000002 
lattice_vector -0.0000000000000002 5.5345888763364002 0.0000000000000002 
lattice_vector 0.0000000000000002 0.0000000000000002 5.5345888763364002 
atom_frac 0.0018068189387573 0.0000000000000000 0.0000000000000000 Si
atom_frac 0.0000000000000000 0.5000000000000000 0.5000000000000000 Si
atom_frac 0.5000000000000000 0.0000000000000000 0.5000000000000000 Si
atom_frac 0.5000000000000000 0.5000000000000000 0.0000000000000000 Si
atom_frac 0.2500000000000000 0.2500000000000000 0.2500000000000000 Si
atom_frac 0.2499999999999999 0.7500000000000000 0.7500000000000000 Si
atom_frac 0.7500000000000000 0.2500000000000000 0.7500000000000000 Si
atom_frac 0.7500000000000000 0.7500000000000000 0.2500000000000000 Si
