#=======================================================
# FHI-aims file: geometry.in.supercell
# Created using the Atomic Simulation Environment (ASE)
# Mon Jun  9 22:52:31 2025

# Additional information:
#  Number of atoms:     216
#=======================================================
lattice_vector 16.2555165440459994 -0.0000000000719992 0.0000000000660025 
lattice_vector -0.0000000000719992 16.2555163174499988 0.0000000000119975 
lattice_vector 0.0000000000660004 0.0000000000120009 16.2555163176479986 
atom 0.0000000000958022 0.0000000000228379 16.2555163175911055 Si
atom 0.0000000000288020 2.7092527195878366 2.7092527195531049 Si
atom 0.0000000000278022 5.4185054391648366 5.4185054391631047 Si
atom 0.0000000000268024 8.1277581587418375 8.1277581587731031 Si
atom 0.0000000000258026 10.8370108783188375 10.8370108783831025 Si
atom 0.0000000000248028 13.5462635978958357 13.5462635979931019 Si
atom 2.7092527573818019 0.0000000000008373 2.7092527195621061 Si
atom 2.7092527573808023 2.7092527195778371 5.4185054391721055 Si
atom 2.7092527573798022 5.4185054391548375 8.1277581587821057 Si
atom 2.7092527573788026 8.1277581587318384 10.8370108783921033 Si
atom 2.7092527573778029 10.8370108783088366 13.5462635980021027 Si
atom 2.7092527573768033 13.5462635978858366 16.2555163176121020 Si
atom 5.4185055147338010 -0.0000000000091624 5.4185054391811063 Si
atom 5.4185055147328010 2.7092527195678375 8.1277581587911065 Si
atom 5.4185055147318018 5.4185054391448375 10.8370108784011041 Si
atom 5.4185055147308017 8.1277581587218375 13.5462635980111035 Si
atom 5.4185055147298016 10.8370108782988375 16.2555163176211011 Si
atom 5.4185055146628018 13.5462635978638364 2.7092527195831040 Si
atom 8.1277582720858010 -0.0000000000191621 8.1277581588001055 Si
atom 8.1277582720848027 2.7092527195578375 10.8370108784101031 Si
atom 8.1277582720838009 5.4185054391348384 13.5462635980201043 Si
atom 8.1277582720828025 8.1277581587118384 16.2555163176301036 Si
atom 8.1277582720158019 10.8370108782768373 2.7092527195921012 Si
atom 8.1277582720148018 13.5462635978538355 5.4185054392021019 Si
atom 10.8370110294378001 -0.0000000000291618 10.8370108784191039 Si
atom 10.8370110294368001 2.7092527195478380 13.5462635980291033 Si
atom 10.8370110294358000 5.4185054391248384 16.2555163176391027 Si
atom 10.8370110293687993 8.1277581586898382 2.7092527196011056 Si
atom 10.8370110293678010 10.8370108782668364 5.4185054392111027 Si
atom 10.8370110293667992 13.5462635978438364 8.1277581588211003 Si
atom 13.5462637867898010 -0.0000000000391615 13.5462635980381059 Si
atom 13.5462637867888027 2.7092527195378384 16.2555163176481052 Si
atom 13.5462637867218003 5.4185054391028373 2.7092527196101064 Si
atom 13.5462637867208020 8.1277581586798373 5.4185054392201035 Si
atom 13.5462637867198019 10.8370108782568373 8.1277581588301047 Si
atom 13.5462637867188018 13.5462635978338373 10.8370108784401040 Si
atom 2.7092527574248026 2.7092527195858382 16.2555163176041049 Si
atom 2.7092527573578020 5.4185054391508372 2.7092527195661047 Si
atom 2.7092527573568024 8.1277581587278380 5.4185054391761041 Si
atom 2.7092527573558027 10.8370108783048362 8.1277581587861025 Si
atom 2.7092527573548031 13.5462635978818362 10.8370108783961037 Si
atom 2.7092527574258023 0.0000000000088365 13.5462635979941037 Si
atom 5.4185055147108017 2.7092527195638376 2.7092527195751059 Si
atom 5.4185055147098025 5.4185054391408372 5.4185054391851049 Si
atom 5.4185055147088024 8.1277581587178371 8.1277581587951051 Si
atom 5.4185055147078023 10.8370108782948371 10.8370108784051045 Si
atom 5.4185055147068031 13.5462635978718371 13.5462635980151020 Si
atom 5.4185055147778023 -0.0000000000011632 16.2555163176131039 Si
atom 8.1277582720628025 2.7092527195538376 5.4185054391941065 Si
atom 8.1277582720618007 5.4185054391308380 8.1277581588041059 Si
atom 8.1277582720608024 8.1277581587078380 10.8370108784141053 Si
atom 8.1277582720598023 10.8370108782848380 13.5462635980241028 Si
atom 8.1277582720588022 13.5462635978618362 16.2555163176341004 Si
atom 8.1277582720638009 -0.0000000000231639 2.7092527195841063 Si
atom 10.8370110294147999 2.7092527195438381 8.1277581588131049 Si
atom 10.8370110294137998 5.4185054391208380 10.8370108784231043 Si
atom 10.8370110294127997 8.1277581586978389 13.5462635980331036 Si
atom 10.8370110294118014 10.8370108782748371 16.2555163176431030 Si
atom 10.8370110293447990 13.5462635978398360 2.7092527196051011 Si
atom 10.8370110294158000 -0.0000000000331636 5.4185054392031047 Si
atom 13.5462637867668008 2.7092527195338385 10.8370108784321051 Si
atom 13.5462637867657989 5.4185054391108380 13.5462635980421027 Si
atom 13.5462637867648006 8.1277581586878380 16.2555163176521020 Si
atom 13.5462637866978000 10.8370108782528369 2.7092527196141059 Si
atom 13.5462637866967999 13.5462635978298369 5.4185054392241030 Si
atom 13.5462637867677991 -0.0000000000431633 8.1277581588221022 Si
atom 0.0000000000728001 2.7092527195958378 13.5462635979851029 Si
atom 0.0000000000718003 5.4185054391728373 16.2555163175951023 Si
atom 0.0000000000048001 8.1277581587378371 2.7092527195571039 Si
atom 0.0000000000038003 10.8370108783148371 5.4185054391671006 Si
atom 0.0000000000028005 13.5462635978918353 8.1277581587771017 Si
atom 0.0000000000737999 0.0000000000188362 10.8370108783751053 Si
atom 5.4185055147538019 5.4185054391488370 16.2555163176171042 Si
atom 5.4185055146868013 8.1277581587138350 2.7092527195791050 Si
atom 5.4185055146858012 10.8370108782908368 5.4185054391891043 Si
atom 5.4185055146848020 13.5462635978678367 8.1277581587991037 Si
atom 5.4185055147558012 -0.0000000000051635 10.8370108783971055 Si
atom 5.4185055147548011 2.7092527195718343 13.5462635980071049 Si
atom 8.1277582720398005 5.4185054391268368 2.7092527195881062 Si
atom 8.1277582720388022 8.1277581587038359 5.4185054391981051 Si
atom 8.1277582720378021 10.8370108782808376 8.1277581588081045 Si
atom 8.1277582720368020 13.5462635978578358 10.8370108784181038 Si
atom 8.1277582721078012 -0.0000000000151632 13.5462635980161057 Si
atom 8.1277582721068029 2.7092527195618343 16.2555163176261033 Si
atom 10.8370110293917996 5.4185054391168368 5.4185054392071059 Si
atom 10.8370110293907995 8.1277581586938368 8.1277581588171053 Si
atom 10.8370110293898012 10.8370108782708368 10.8370108784271046 Si
atom 10.8370110293887993 13.5462635978478367 13.5462635980371040 Si
atom 10.8370110294598003 -0.0000000000251629 16.2555163176351058 Si
atom 10.8370110293927997 2.7092527195398337 2.7092527195971066 Si
atom 13.5462637867437987 5.4185054391068368 8.1277581588261043 Si
atom 13.5462637867428004 8.1277581586838359 10.8370108784361037 Si
atom 13.5462637867418003 10.8370108782608376 13.5462635980461048 Si
atom 13.5462637867408002 13.5462635978378376 16.2555163176561024 Si
atom 13.5462637867457989 -0.0000000000471636 2.7092527196061038 Si
atom 13.5462637867448006 2.7092527195298342 5.4185054392161041 Si
atom 0.0000000000498002 5.4185054391688361 10.8370108783791022 Si
atom 0.0000000000488004 8.1277581587458361 13.5462635979891015 Si
atom 0.0000000000478006 10.8370108783228378 16.2555163175991026 Si
atom -0.0000000000191996 13.5462635978878350 2.7092527195611029 Si
atom 0.0000000000517997 0.0000000000148359 5.4185054391591025 Si
atom 0.0000000000508000 2.7092527195918334 8.1277581587690992 Si
atom 2.7092527574018010 5.4185054391588370 13.5462635979981041 Si
atom 2.7092527574008014 8.1277581587358370 16.2555163176081017 Si
atom 2.7092527573338012 10.8370108783008359 2.7092527195701042 Si
atom 2.7092527573328016 13.5462635978778358 5.4185054391801009 Si
atom 2.7092527574038008 0.0000000000048362 8.1277581587781036 Si
atom 2.7092527574028011 2.7092527195818339 10.8370108783881047 Si
atom 1.3546263786401997 1.3546263597716597 1.3546263598673898 Si
atom 1.3546263786391999 4.0638790793486601 4.0638790794773900 Si
atom 1.3546263786382002 6.7731317989256583 6.7731317990873876 Si
atom 1.3546263786372004 9.4823845185026574 9.4823845186973870 Si
atom 1.3546263786362005 12.1916372380796592 12.1916372383073881 Si
atom 1.3546263786352006 14.9008899576566591 14.9008899579173857 Si
atom 4.0638791359922006 1.3546263597616599 4.0638790794863908 Si
atom 4.0638791359912005 4.0638790793386601 6.7731317990963902 Si
atom 4.0638791359902005 6.7731317989156592 9.4823845187063878 Si
atom 4.0638791359892013 9.4823845184926583 12.1916372383163871 Si
atom 4.0638791359882012 12.1916372380696600 14.9008899579263865 Si
atom 4.0638791359212005 14.9008899576346572 1.3546263598883892 Si
atom 6.7731318933441989 1.3546263597516603 6.7731317991053901 Si
atom 6.7731318933431988 4.0638790793286610 9.4823845187153886 Si
atom 6.7731318933421987 6.7731317989056592 12.1916372383253879 Si
atom 6.7731318933411995 9.4823845184826592 14.9008899579353855 Si
atom 6.7731318932741988 12.1916372380476581 1.3546263598973900 Si
atom 6.7731318932731988 14.9008899576246581 4.0638790795073874 Si
atom 9.4823846506961988 1.3546263597416606 9.4823845187243894 Si
atom 9.4823846506951988 4.0638790793186610 12.1916372383343887 Si
atom 9.4823846506942004 6.7731317988956592 14.9008899579443863 Si
atom 9.4823846506271980 9.4823845184606572 1.3546263599063872 Si
atom 9.4823846506261997 12.1916372380376590 4.0638790795163882 Si
atom 9.4823846506251996 14.9008899576146590 6.7731317991263884 Si
atom 12.1916374080481962 1.3546263597316610 12.1916372383433895 Si
atom 12.1916374080471979 4.0638790793086610 14.9008899579533871 Si
atom 12.1916374079801972 6.7731317988736590 1.3546263599153880 Si
atom 12.1916374079791971 9.4823845184506581 4.0638790795253854 Si
atom 12.1916374079781971 12.1916372380276599 6.7731317991353892 Si
atom 12.1916374079771987 14.9008899576046581 9.4823845187453859 Si
atom 14.9008901654001971 1.3546263597216610 14.9008899579623915 Si
atom 14.9008901653331964 4.0638790792866608 1.3546263599243888 Si
atom 14.9008901653321981 6.7731317988636590 4.0638790795343898 Si
atom 14.9008901653311963 9.4823845184406590 6.7731317991443900 Si
atom 14.9008901653301979 12.1916372380176590 9.4823845187543867 Si
atom 14.9008901653291979 14.9008899575946590 12.1916372383643878 Si
atom 4.0638791359691995 4.0638790793346597 1.3546263598803896 Si
atom 4.0638791359681994 6.7731317989116606 4.0638790794903894 Si
atom 4.0638791359672002 9.4823845184886579 6.7731317991003870 Si
atom 4.0638791359662001 12.1916372380656597 9.4823845187103863 Si
atom 4.0638791359652000 14.9008899576426597 12.1916372383203875 Si
atom 4.0638791360362001 1.3546263597696604 14.9008899579183893 Si
atom 6.7731318933211995 4.0638790793246597 4.0638790794993902 Si
atom 6.7731318933201994 6.7731317989016606 6.7731317991093904 Si
atom 6.7731318933192002 9.4823845184786588 9.4823845187193871 Si
atom 6.7731318933182001 12.1916372380556588 12.1916372383293865 Si
atom 6.7731318933172000 14.9008899576326606 14.9008899579393876 Si
atom 6.7731318933221996 1.3546263597476600 1.3546263598893917 Si
atom 9.4823846506731986 4.0638790793146597 6.7731317991183904 Si
atom 9.4823846506722003 6.7731317988916606 9.4823845187283879 Si
atom 9.4823846506711984 9.4823845184686579 12.1916372383383873 Si
atom 9.4823846506702001 12.1916372380456597 14.9008899579483867 Si
atom 9.4823846506031995 14.9008899576106604 1.3546263599103900 Si
atom 9.4823846506741987 1.3546263597376602 4.0638790795083892 Si
atom 12.1916374080252012 4.0638790793046606 9.4823845187373887 Si
atom 12.1916374080242012 6.7731317988816615 12.1916372383473881 Si
atom 12.1916374080232011 9.4823845184586588 14.9008899579573875 Si
atom 12.1916374079562004 12.1916372380236595 1.3546263599193873 Si
atom 12.1916374079552021 14.9008899576006595 4.0638790795293875 Si
atom 12.1916374080261996 1.3546263597276607 6.7731317991273912 Si
atom 14.9008901653771968 4.0638790792946606 12.1916372383563889 Si
atom 14.9008901653761985 6.7731317988716615 14.9008899579663883 Si
atom 14.9008901653091961 9.4823845184366586 1.3546263599283881 Si
atom 14.9008901653081978 12.1916372380136586 4.0638790795383848 Si
atom 14.9008901653071977 14.9008899575906604 6.7731317991483895 Si
atom 14.9008901653781969 1.3546263597176609 9.4823845187463895 Si
atom 1.3546263786831996 4.0638790793566599 14.9008899579093885 Si
atom 1.3546263786161996 6.7731317989216597 1.3546263598713864 Si
atom 1.3546263786151997 9.4823845184986570 4.0638790794813868 Si
atom 1.3546263786141999 12.1916372380756588 6.7731317990913871 Si
atom 1.3546263786132002 14.9008899576526606 9.4823845187013838 Si
atom 1.3546263786841997 1.3546263597796604 12.1916372382993874 Si
atom 6.7731318932981992 6.7731317988976594 1.3546263598933896 Si
atom 6.7731318932972000 9.4823845184746602 4.0638790795033897 Si
atom 6.7731318932961999 12.1916372380516567 6.7731317991133873 Si
atom 6.7731318932951998 14.9008899576286584 9.4823845187233875 Si
atom 6.7731318933661999 1.3546263597556607 12.1916372383213893 Si
atom 6.7731318933651998 4.0638790793326587 14.9008899579313887 Si
atom 9.4823846506502001 6.7731317988876594 4.0638790795123905 Si
atom 9.4823846506491982 9.4823845184646594 6.7731317991223898 Si
atom 9.4823846506481999 12.1916372380416576 9.4823845187323883 Si
atom 9.4823846506471998 14.9008899576186593 12.1916372383423859 Si
atom 9.4823846507181990 1.3546263597456607 14.9008899579403895 Si
atom 9.4823846506511984 4.0638790793106576 1.3546263599023918 Si
atom 12.1916374080021992 6.7731317988776603 6.7731317991313897 Si
atom 12.1916374080011991 9.4823845184546602 9.4823845187413891 Si
atom 12.1916374080001990 12.1916372380316584 12.1916372383513867 Si
atom 12.1916374079992007 14.9008899576086584 14.9008899579613860 Si
atom 12.1916374080041976 1.3546263597236603 1.3546263599113926 Si
atom 12.1916374080031993 4.0638790793006576 4.0638790795213895 Si
atom 14.9008901653542001 6.7731317988676603 9.4823845187503899 Si
atom 14.9008901653531982 9.4823845184446611 12.1916372383603875 Si
atom 14.9008901653521999 12.1916372380216576 14.9008899579703868 Si
atom 14.9008901652851993 14.9008899575866582 1.3546263599323871 Si
atom 14.9008901653561985 1.3546263597136605 4.0638790795303903 Si
atom 14.9008901653551984 4.0638790792906585 6.7731317991403905 Si
atom 1.3546263786601964 6.7731317989296596 12.1916372383033860 Si
atom 1.3546263786591963 9.4823845185066595 14.9008899579133853 Si
atom 1.3546263785921961 12.1916372380716567 1.3546263598753856 Si
atom 1.3546263785911965 14.9008899576486584 4.0638790794853827 Si
atom 1.3546263786621959 1.3546263597756600 6.7731317990833890 Si
atom 1.3546263786611961 4.0638790793526578 9.4823845186933866 Si
atom 4.0638791360122006 6.7731317989196604 14.9008899579223879 Si
atom 4.0638791359452009 9.4823845184846594 1.3546263598843864 Si
atom 4.0638791359442008 12.1916372380616576 4.0638790794943871 Si
atom 4.0638791359432007 14.9008899576386575 6.7731317991043873 Si
atom 4.0638791360142008 1.3546263597656603 9.4823845187023874 Si
atom 4.0638791360132007 4.0638790793426578 12.1916372383123868 Si
