#=======================================================
# FHI-aims file: geometry.in.primitive
# Created using the Atomic Simulation Environment (ASE)
# Mon Jun  9 22:52:31 2025

# Additional information:
#  Number of atoms:     2
#=======================================================
lattice_vector -0.0000000000010000 2.7092527195770000 2.7092527196099998 
lattice_vector 2.7092527573520000 -0.0000000000100000 2.7092527196190002 
lattice_vector 2.7092527573290002 2.7092527195630001 0.0000000000130000 
atom 0.0000000000298018 0.0000000000108370 -0.0000000000568943 Si
atom 1.3546263786401997 1.3546263597716597 1.3546263598673900 Si
