#=======================================================
# FHI-aims file: geometry.in.supercell
# Created using the Atomic Simulation Environment (ASE)
# Mon Jun  9 22:53:06 2025

# Additional information:
#  Number of atoms:     1000
#=======================================================
lattice_vector 27.0925275734099991 -0.0000000001199966 0.0000000001100009 
lattice_vector -0.0000000001199984 27.0925271957499980 0.0000000000199991 
lattice_vector 0.0000000001099993 0.0000000000199984 27.0925271960799989 
atom 0.0000000001398011 0.0000000000308354 27.0925271960231058 Si
atom 0.0000000000288019 2.7092527195878362 2.7092527195531053 Si
atom 0.0000000000278020 5.4185054391648357 5.4185054391631056 Si
atom 0.0000000000268020 8.1277581587418357 8.1277581587731049 Si
atom 0.0000000000258021 10.8370108783188357 10.8370108783831061 Si
atom 0.0000000000248022 13.5462635978958321 13.5462635979931019 Si
atom 0.0000000000238023 16.2555163174728321 16.2555163176031030 Si
atom 0.0000000000228024 18.9647690370498339 18.9647690372131024 Si
atom 0.0000000000218025 21.6740217566268321 21.6740217568231017 Si
atom 0.0000000000208026 24.3832744762038374 24.3832744764331082 Si
atom 2.7092527573818019 0.0000000000008372 2.7092527195621052 Si
atom 2.7092527573808018 2.7092527195778362 5.4185054391721046 Si
atom 2.7092527573798022 5.4185054391548366 8.1277581587821057 Si
atom 2.7092527573788021 8.1277581587318366 10.8370108783921051 Si
atom 2.7092527573778020 10.8370108783088366 13.5462635980021044 Si
atom 2.7092527573768024 13.5462635978858330 16.2555163176121020 Si
atom 2.7092527573758023 16.2555163174628348 18.9647690372221049 Si
atom 2.7092527573748022 18.9647690370398330 21.6740217568321043 Si
atom 2.7092527573738026 21.6740217566168312 24.3832744764421037 Si
atom 2.7092527573728025 24.3832744761938365 27.0925271960521066 Si
atom 5.4185055147338019 -0.0000000000091626 5.4185054391811063 Si
atom 5.4185055147328010 2.7092527195678371 8.1277581587911047 Si
atom 5.4185055147318018 5.4185054391448357 10.8370108784011059 Si
atom 5.4185055147308017 8.1277581587218357 13.5462635980111052 Si
atom 5.4185055147298025 10.8370108782988375 16.2555163176211046 Si
atom 5.4185055147288024 13.5462635978758339 18.9647690372311004 Si
atom 5.4185055147278023 16.2555163174528339 21.6740217568411033 Si
atom 5.4185055147268022 18.9647690370298321 24.3832744764511062 Si
atom 5.4185055147258021 21.6740217566068338 27.0925271960611020 Si
atom 5.4185055146148029 24.3832744761638409 2.7092527195911109 Si
atom 8.1277582720858010 -0.0000000000191625 8.1277581588001055 Si
atom 8.1277582720848027 2.7092527195578371 10.8370108784101049 Si
atom 8.1277582720838009 5.4185054391348366 13.5462635980201060 Si
atom 8.1277582720828008 8.1277581587118366 16.2555163176301036 Si
atom 8.1277582720818025 10.8370108782888384 18.9647690372401065 Si
atom 8.1277582720808006 13.5462635978658330 21.6740217568501023 Si
atom 8.1277582720798023 16.2555163174428330 24.3832744764601053 Si
atom 8.1277582720788022 18.9647690370198347 27.0925271960701011 Si
atom 8.1277582719678030 21.6740217565768347 2.7092527196001051 Si
atom 8.1277582719668029 24.3832744761538400 5.4185054392101071 Si
atom 10.8370110294378019 -0.0000000000291623 10.8370108784191057 Si
atom 10.8370110294368018 2.7092527195478371 13.5462635980291051 Si
atom 10.8370110294358000 5.4185054391248375 16.2555163176391062 Si
atom 10.8370110294348017 8.1277581587018375 18.9647690372491056 Si
atom 10.8370110294338016 10.8370108782788357 21.6740217568591049 Si
atom 10.8370110294328015 13.5462635978558321 24.3832744764691007 Si
atom 10.8370110294318014 16.2555163174328356 27.0925271960791001 Si
atom 10.8370110293208022 18.9647690369898356 2.7092527196091050 Si
atom 10.8370110293198039 21.6740217565668374 5.4185054392191017 Si
atom 10.8370110293188020 24.3832744761438427 8.1277581588291099 Si
atom 13.5462637867898010 -0.0000000000391621 13.5462635980381059 Si
atom 13.5462637867888009 2.7092527195378371 16.2555163176481052 Si
atom 13.5462637867878009 5.4185054391148366 18.9647690372581081 Si
atom 13.5462637867868008 8.1277581586918366 21.6740217568681075 Si
atom 13.5462637867858025 10.8370108782688366 24.3832744764781069 Si
atom 13.5462637867848006 13.5462635978458330 27.0925271960881027 Si
atom 13.5462637866738014 16.2555163174028365 2.7092527196181053 Si
atom 13.5462637866728031 18.9647690369798383 5.4185054392281078 Si
atom 13.5462637866718030 21.6740217565568365 8.1277581588381036 Si
atom 13.5462637866708029 24.3832744761338418 10.8370108784481118 Si
atom 16.2555165441417984 -0.0000000000491619 16.2555163176571043 Si
atom 16.2555165441407965 2.7092527195278375 18.9647690372671036 Si
atom 16.2555165441398017 5.4185054391048375 21.6740217568771030 Si
atom 16.2555165441387999 8.1277581586818357 24.3832744764871059 Si
atom 16.2555165441377980 10.8370108782588375 27.0925271960971052 Si
atom 16.2555165440268006 13.5462635978158357 2.7092527196271052 Si
atom 16.2555165440257987 16.2555163173928392 5.4185054392371077 Si
atom 16.2555165440248004 18.9647690369698374 8.1277581588471044 Si
atom 16.2555165440238021 21.6740217565468356 10.8370108784571055 Si
atom 16.2555165440228002 24.3832744761238409 13.5462635980671084 Si
atom 18.9647693014937992 -0.0000000000591618 18.9647690372761062 Si
atom 18.9647693014928009 2.7092527195178375 21.6740217568861055 Si
atom 18.9647693014918026 5.4185054390948375 24.3832744764961049 Si
atom 18.9647693014908008 8.1277581586718366 27.0925271961061043 Si
atom 18.9647693013797998 10.8370108782288401 2.7092527196361056 Si
atom 18.9647693013788015 13.5462635978058366 5.4185054392461014 Si
atom 18.9647693013778031 16.2555163173828383 8.1277581588561034 Si
atom 18.9647693013768013 18.9647690369598365 10.8370108784661063 Si
atom 18.9647693013758030 21.6740217565368383 13.5462635980761021 Si
atom 18.9647693013748011 24.3832744761138400 16.2555163176861122 Si
atom 21.6740220588458037 -0.0000000000691616 21.6740217568951081 Si
atom 21.6740220588448018 2.7092527195078380 24.3832744765051075 Si
atom 21.6740220588438035 5.4185054390848375 27.0925271961151068 Si
atom 21.6740220587328025 8.1277581586418393 2.7092527196451059 Si
atom 21.6740220587318007 10.8370108782188410 5.4185054392551084 Si
atom 21.6740220587308059 13.5462635977958357 8.1277581588651042 Si
atom 21.6740220587298040 16.2555163173728374 10.8370108784751071 Si
atom 21.6740220587288022 18.9647690369498392 13.5462635980851029 Si
atom 21.6740220587278039 21.6740217565268338 16.2555163176951041 Si
atom 21.6740220587268020 24.3832744761038391 18.9647690373051070 Si
atom 24.3832748161977939 -0.0000000000791614 24.3832744765140994 Si
atom 24.3832748161967920 2.7092527194978380 27.0925271961241023 Si
atom 24.3832748160857946 5.4185054390548402 2.7092527196541001 Si
atom 24.3832748160847927 8.1277581586318401 5.4185054392641021 Si
atom 24.3832748160837944 10.8370108782088383 8.1277581588741050 Si
atom 24.3832748160827961 13.5462635977858348 10.8370108784841008 Si
atom 24.3832748160817943 16.2555163173628401 13.5462635980941020 Si
atom 24.3832748160807924 18.9647690369398347 16.2555163177040995 Si
atom 24.3832748160797941 21.6740217565168365 18.9647690373141025 Si
atom 24.3832748160787958 24.3832744760938418 21.6740217569241018 Si
atom 2.7092527574688012 2.7092527195938350 27.0925271960361052 Si
atom 2.7092527573578025 5.4185054391508363 2.7092527195661051 Si
atom 2.7092527573568019 8.1277581587278380 5.4185054391761049 Si
atom 2.7092527573558023 10.8370108783048344 8.1277581587861043 Si
atom 2.7092527573548026 13.5462635978818362 10.8370108783961054 Si
atom 2.7092527573538026 16.2555163174588344 13.5462635980061012 Si
atom 2.7092527573528025 18.9647690370358326 16.2555163176161059 Si
atom 2.7092527573518024 21.6740217566128308 18.9647690372261017 Si
atom 2.7092527573508027 24.3832744761898326 21.6740217568361011 Si
atom 2.7092527574698013 0.0000000000168393 24.3832744764261093 Si
atom 5.4185055147108017 2.7092527195638372 2.7092527195751055 Si
atom 5.4185055147098025 5.4185054391408363 5.4185054391851049 Si
atom 5.4185055147088015 8.1277581587178354 8.1277581587951051 Si
atom 5.4185055147078023 10.8370108782948353 10.8370108784051045 Si
atom 5.4185055147068022 13.5462635978718353 13.5462635980151056 Si
atom 5.4185055147058021 16.2555163174488300 16.2555163176251014 Si
atom 5.4185055147048029 18.9647690370258317 18.9647690372351043 Si
atom 5.4185055147038028 21.6740217566028335 21.6740217568451037 Si
atom 5.4185055147028018 24.3832744761798317 24.3832744764551030 Si
atom 5.4185055148218009 0.0000000000068394 27.0925271960451077 Si
atom 8.1277582720628025 2.7092527195538372 5.4185054391941065 Si
atom 8.1277582720618007 5.4185054391308363 8.1277581588041059 Si
atom 8.1277582720608024 8.1277581587078362 10.8370108784141070 Si
atom 8.1277582720598023 10.8370108782848362 13.5462635980241046 Si
atom 8.1277582720588004 13.5462635978618362 16.2555163176341040 Si
atom 8.1277582720578021 16.2555163174388326 18.9647690372440998 Si
atom 8.1277582720568020 18.9647690370158344 21.6740217568541027 Si
atom 8.1277582720558037 21.6740217565928326 24.3832744764641056 Si
atom 8.1277582720548018 24.3832744761698308 27.0925271960741014 Si
atom 8.1277582720638009 -0.0000000000231588 2.7092527195841116 Si
atom 10.8370110294148017 2.7092527195438376 8.1277581588131049 Si
atom 10.8370110294138016 5.4185054391208363 10.8370108784231043 Si
atom 10.8370110294128015 8.1277581586978371 13.5462635980331054 Si
atom 10.8370110294118014 10.8370108782748371 16.2555163176431066 Si
atom 10.8370110294108013 13.5462635978518371 18.9647690372531059 Si
atom 10.8370110294098012 16.2555163174288317 21.6740217568631017 Si
atom 10.8370110294088029 18.9647690370058335 24.3832744764731046 Si
atom 10.8370110294078028 21.6740217565828353 27.0925271960831004 Si
atom 10.8370110292968018 24.3832744761398352 2.7092527196131049 Si
atom 10.8370110294158017 -0.0000000000331586 5.4185054392031082 Si
atom 13.5462637867668025 2.7092527195338376 10.8370108784321051 Si
atom 13.5462637867658007 5.4185054391108363 13.5462635980421044 Si
atom 13.5462637867648006 8.1277581586878380 16.2555163176521056 Si
atom 13.5462637867638023 10.8370108782648362 18.9647690372621049 Si
atom 13.5462637867628004 13.5462635978418362 21.6740217568721043 Si
atom 13.5462637867618021 16.2555163174188309 24.3832744764821001 Si
atom 13.5462637867608020 18.9647690369958362 27.0925271960921030 Si
atom 13.5462637866498028 21.6740217565528361 2.7092527196221052 Si
atom 13.5462637866488027 24.3832744761298343 5.4185054392321010 Si
atom 13.5462637867678009 -0.0000000000431584 8.1277581588221111 Si
atom 16.2555165441187981 2.7092527195238376 13.5462635980511052 Si
atom 16.2555165441177998 5.4185054391008372 16.2555163176611046 Si
atom 16.2555165441167979 8.1277581586778371 18.9647690372711075 Si
atom 16.2555165441157996 10.8370108782548353 21.6740217568811069 Si
atom 16.2555165441148013 13.5462635978318371 24.3832744764911062 Si
atom 16.2555165441137994 16.2555163174088335 27.0925271961011020 Si
atom 16.2555165440027984 18.9647690369658370 2.7092527196311051 Si
atom 16.2555165440018001 21.6740217565428352 5.4185054392411072 Si
atom 16.2555165440008018 24.3832744761198370 8.1277581588511030 Si
atom 16.2555165441198000 -0.0000000000531582 10.8370108784411130 Si
atom 18.9647693014707990 2.7092527195138376 16.2555163176701036 Si
atom 18.9647693014698007 5.4185054390908372 18.9647690372801030 Si
atom 18.9647693014688024 8.1277581586678362 21.6740217568901024 Si
atom 18.9647693014678005 10.8370108782448362 24.3832744765001053 Si
atom 18.9647693014668022 13.5462635978218362 27.0925271961101046 Si
atom 18.9647693013558012 16.2555163173788344 2.7092527196401055 Si
atom 18.9647693013547993 18.9647690369558362 5.4185054392501080 Si
atom 18.9647693013538046 21.6740217565328379 8.1277581588601038 Si
atom 18.9647693013528027 24.3832744761098361 10.8370108784701067 Si
atom 18.9647693014718008 -0.0000000000631581 13.5462635980601096 Si
atom 21.6740220588227963 2.7092527195038385 18.9647690372891056 Si
atom 21.6740220588218016 5.4185054390808371 21.6740217568991049 Si
atom 21.6740220588207997 8.1277581586578371 24.3832744765091078 Si
atom 21.6740220588197978 10.8370108782348371 27.0925271961191036 Si
atom 21.6740220587088004 13.5462635977918389 2.7092527196491054 Si
atom 21.6740220587077985 16.2555163173688371 5.4185054392591017 Si
atom 21.6740220587068002 18.9647690369458388 8.1277581588691046 Si
atom 21.6740220587058019 21.6740217565228370 10.8370108784791057 Si
atom 21.6740220587048000 24.3832744760998352 13.5462635980891033 Si
atom 21.6740220588237982 -0.0000000000731579 16.2555163176791098 Si
atom 24.3832748161748007 2.7092527194938385 21.6740217569081075 Si
atom 24.3832748161738024 5.4185054390708380 24.3832744765181069 Si
atom 24.3832748161728006 8.1277581586478380 27.0925271961281062 Si
atom 24.3832748160617996 10.8370108782048398 2.7092527196581058 Si
atom 24.3832748160608013 13.5462635977818397 5.4185054392681078 Si
atom 24.3832748160598030 16.2555163173588362 8.1277581588781036 Si
atom 24.3832748160588011 18.9647690369358379 10.8370108784881065 Si
atom 24.3832748160578028 21.6740217565128397 13.5462635980981023 Si
atom 24.3832748160568009 24.3832744760898343 16.2555163177081035 Si
atom 24.3832748161757991 -0.0000000000831577 18.9647690372981081 Si
atom 0.0000000001167955 2.7092527196038350 24.3832744764170997 Si
atom 0.0000000001157956 5.4185054391808336 27.0925271960271026 Si
atom 0.0000000000047964 8.1277581587378371 2.7092527195570990 Si
atom 0.0000000000037965 10.8370108783148353 5.4185054391671015 Si
atom 0.0000000000027966 13.5462635978918353 8.1277581587771035 Si
atom 0.0000000000017967 16.2555163174688317 10.8370108783870993 Si
atom 0.0000000000007968 18.9647690370458371 13.5462635979971022 Si
atom -0.0000000000002031 21.6740217566228317 16.2555163176070998 Si
atom -0.0000000000012030 24.3832744761998299 18.9647690372170992 Si
atom 0.0000000001177954 0.0000000000268391 21.6740217568071039 Si
atom 5.4185055147978005 5.4185054391568350 27.0925271960491045 Si
atom 5.4185055146868013 8.1277581587138350 2.7092527195791054 Si
atom 5.4185055146858021 10.8370108782908368 5.4185054391891052 Si
atom 5.4185055146848011 13.5462635978678350 8.1277581587991055 Si
atom 5.4185055146838010 16.2555163174448367 10.8370108784091066 Si
atom 5.4185055146828018 18.9647690370218349 13.5462635980191024 Si
atom 5.4185055146818017 21.6740217565988331 16.2555163176291053 Si
atom 5.4185055146808017 24.3832744761758313 18.9647690372391047 Si
atom 5.4185055147998007 0.0000000000028337 21.6740217568291023 Si
atom 5.4185055147987997 2.7092527195798417 24.3832744764391087 Si
atom 8.1277582720397987 5.4185054391268368 2.7092527195881053 Si
atom 8.1277582720388004 8.1277581587038359 5.4185054391981042 Si
atom 8.1277582720378003 10.8370108782808359 8.1277581588081045 Si
atom 8.1277582720368002 13.5462635978578358 10.8370108784181038 Si
atom 8.1277582720358001 16.2555163174348358 13.5462635980281050 Si
atom 8.1277582720348001 18.9647690370118305 16.2555163176381008 Si
atom 8.1277582720338017 21.6740217565888322 18.9647690372481037 Si
atom 8.1277582720327999 24.3832744761658304 21.6740217568581031 Si
atom 8.1277582721517998 -0.0000000000071661 24.3832744764481042 Si
atom 8.1277582721507997 2.7092527195698417 27.0925271960581071 Si
atom 10.8370110293918014 5.4185054391168368 5.4185054392071059 Si
atom 10.8370110293908013 8.1277581586938350 8.1277581588171053 Si
atom 10.8370110293898030 10.8370108782708368 10.8370108784271064 Si
atom 10.8370110293888011 13.5462635978478367 13.5462635980371058 Si
atom 10.8370110293878010 16.2555163174248349 16.2555163176471034 Si
atom 10.8370110293868027 18.9647690370018296 18.9647690372570992 Si
atom 10.8370110293858026 21.6740217565788349 21.6740217568671021 Si
atom 10.8370110293848025 24.3832744761558331 24.3832744764771050 Si
atom 10.8370110295038007 -0.0000000000171659 27.0925271960671026 Si
atom 10.8370110293928015 2.7092527195398435 2.7092527195971114 Si
atom 13.5462637867438005 5.4185054391068368 8.1277581588261061 Si
atom 13.5462637867428022 8.1277581586838359 10.8370108784361054 Si
atom 13.5462637867418021 10.8370108782608359 13.5462635980461048 Si
atom 13.5462637867408002 13.5462635978378376 16.2555163176561059 Si
atom 13.5462637867398019 16.2555163174148340 18.9647690372661053 Si
atom 13.5462637867388018 18.9647690369918323 21.6740217568761047 Si
atom 13.5462637867378035 21.6740217565688340 24.3832744764861040 Si
atom 13.5462637867368016 24.3832744761458322 27.0925271960961034 Si
atom 13.5462637867458007 -0.0000000000471641 2.7092527196061056 Si
atom 13.5462637867448024 2.7092527195298439 5.4185054392161076 Si
atom 16.2555165440958014 5.4185054390968368 10.8370108784451045 Si
atom 16.2555165440947995 8.1277581586738368 13.5462635980551038 Si
atom 16.2555165440937976 10.8370108782508368 16.2555163176651050 Si
atom 16.2555165440927993 13.5462635978278385 18.9647690372751043 Si
atom 16.2555165440918010 16.2555163174048367 21.6740217568851037 Si
atom 16.2555165440907992 18.9647690369818314 24.3832744764950995 Si
atom 16.2555165440898008 21.6740217565588331 27.0925271961051024 Si
atom 16.2555165439787999 24.3832744761158366 2.7092527196351051 Si
atom 16.2555165440977980 -0.0000000000571639 5.4185054392251022 Si
atom 16.2555165440967997 2.7092527195198444 8.1277581588351104 Si
atom 18.9647693014478023 5.4185054390868377 13.5462635980641064 Si
atom 18.9647693014468004 8.1277581586638359 16.2555163176741040 Si
atom 18.9647693014457985 10.8370108782408376 18.9647690372841069 Si
atom 18.9647693014448038 13.5462635978178358 21.6740217568941063 Si
atom 18.9647693014438019 16.2555163173948358 24.3832744765041056 Si
atom 18.9647693014428000 18.9647690369718340 27.0925271961141014 Si
atom 18.9647693013318026 21.6740217565288376 2.7092527196441054 Si
atom 18.9647693013308007 24.3832744761058358 5.4185054392541074 Si
atom 18.9647693014498024 -0.0000000000671638 8.1277581588441041 Si
atom 18.9647693014488006 2.7092527195098444 10.8370108784541124 Si
atom 21.6740220587997996 5.4185054390768377 16.2555163176831066 Si
atom 21.6740220587987977 8.1277581586538368 18.9647690372931059 Si
atom 21.6740220587977994 10.8370108782308368 21.6740217569031053 Si
atom 21.6740220587968011 13.5462635978078367 24.3832744765131046 Si
atom 21.6740220587957992 16.2555163173848349 27.0925271961231040 Si
atom 21.6740220586847983 18.9647690369418349 2.7092527196531053 Si
atom 21.6740220586837999 21.6740217565188367 5.4185054392631073 Si
atom 21.6740220586828016 24.3832744760958349 8.1277581588731032 Si
atom 21.6740220588017998 -0.0000000000771636 10.8370108784631061 Si
atom 21.6740220588007979 2.7092527194998444 13.5462635980731090 Si
atom 24.3832748161517969 5.4185054390668377 18.9647690373021049 Si
atom 24.3832748161507986 8.1277581586438359 21.6740217569121043 Si
atom 24.3832748161497967 10.8370108782208376 24.3832744765221072 Si
atom 24.3832748161487984 13.5462635977978376 27.0925271961321066 Si
atom 24.3832748160377975 16.2555163173548394 2.7092527196621057 Si
atom 24.3832748160367956 18.9647690369318340 5.4185054392721019 Si
atom 24.3832748160358008 21.6740217565088393 8.1277581588821040 Si
atom 24.3832748160347990 24.3832744760858375 10.8370108784921069 Si
atom 24.3832748161537971 -0.0000000000871634 13.5462635980821027 Si
atom 24.3832748161527952 2.7092527194898444 16.2555163176921127 Si
atom 0.0000000000938018 5.4185054391768341 21.6740217568111078 Si
atom 0.0000000000928019 8.1277581587538332 24.3832744764211071 Si
atom 0.0000000000918019 10.8370108783308332 27.0925271960311029 Si
atom -0.0000000000191972 13.5462635978878367 2.7092527195611047 Si
atom -0.0000000000201972 16.2555163174648349 5.4185054391711072 Si
atom -0.0000000000211971 18.9647690370418331 8.1277581587811039 Si
atom -0.0000000000221970 21.6740217566188349 10.8370108783911050 Si
atom -0.0000000000231969 24.3832744761958331 13.5462635980011026 Si
atom 0.0000000000958016 0.0000000000228334 16.2555163175911055 Si
atom 0.0000000000948017 2.7092527195998417 18.9647690372011084 Si
atom 2.7092527574457983 5.4185054391668350 24.3832744764300990 Si
atom 2.7092527574447978 8.1277581587438341 27.0925271960401020 Si
atom 2.7092527573337990 10.8370108783008359 2.7092527195700993 Si
atom 2.7092527573327989 13.5462635978778376 5.4185054391801009 Si
atom 2.7092527573317993 16.2555163174548376 8.1277581587901029 Si
atom 2.7092527573307992 18.9647690370318323 10.8370108784001005 Si
atom 2.7092527573297991 21.6740217566088340 13.5462635980101016 Si
atom 2.7092527573287994 24.3832744761858322 16.2555163176200992 Si
atom 2.7092527574477976 0.0000000000128336 18.9647690372101003 Si
atom 2.7092527574467979 2.7092527195898417 21.6740217568201032 Si
atom 8.1277582721268011 8.1277581587198355 27.0925271960621039 Si
atom 8.1277582720158019 10.8370108782768373 2.7092527195921052 Si
atom 8.1277582720148018 13.5462635978538373 5.4185054392021055 Si
atom 8.1277582720138017 16.2555163174308355 8.1277581588121048 Si
atom 8.1277582720128034 18.9647690370078408 10.8370108784221060 Si
atom 8.1277582720118033 21.6740217565848354 13.5462635980321018 Si
atom 8.1277582720108015 24.3832744761618336 16.2555163176421047 Si
atom 8.1277582721298014 -0.0000000000111658 18.9647690372321058 Si
atom 8.1277582721288013 2.7092527195658365 21.6740217568421052 Si
atom 8.1277582721278012 5.4185054391428391 24.3832744764521081 Si
atom 10.8370110293688011 8.1277581586898382 2.7092527196011056 Si
atom 10.8370110293678028 10.8370108782668382 5.4185054392111045 Si
atom 10.8370110293668009 13.5462635978438364 8.1277581588211056 Si
atom 10.8370110293658026 16.2555163174208381 10.8370108784311050 Si
atom 10.8370110293648025 18.9647690369978399 13.5462635980411061 Si
atom 10.8370110293638025 21.6740217565748345 16.2555163176511002 Si
atom 10.8370110293628024 24.3832744761518363 18.9647690372611031 Si
atom 10.8370110294818005 -0.0000000000211656 21.6740217568511042 Si
atom 10.8370110294808022 2.7092527195558365 24.3832744764611036 Si
atom 10.8370110294798003 5.4185054391328382 27.0925271960711065 Si
atom 13.5462637867208020 8.1277581586798391 5.4185054392201062 Si
atom 13.5462637867198019 10.8370108782568355 8.1277581588301047 Si
atom 13.5462637867188018 13.5462635978338373 10.8370108784401058 Si
atom 13.5462637867178017 16.2555163174108372 13.5462635980501052 Si
atom 13.5462637867168016 18.9647690369878354 16.2555163176601063 Si
atom 13.5462637867158033 21.6740217565648337 18.9647690372701021 Si
atom 13.5462637867148015 24.3832744761418354 21.6740217568801015 Si
atom 13.5462637868338014 -0.0000000000311654 24.3832744764701062 Si
atom 13.5462637868328013 2.7092527195458365 27.0925271960801020 Si
atom 13.5462637867218003 5.4185054391028409 2.7092527196101117 Si
atom 16.2555165440728011 8.1277581586698364 8.1277581588391055 Si
atom 16.2555165440717992 10.8370108782468364 10.8370108784491048 Si
atom 16.2555165440708009 13.5462635978238382 13.5462635980591060 Si
atom 16.2555165440697991 16.2555163174008364 16.2555163176691053 Si
atom 16.2555165440687972 18.9647690369778381 18.9647690372791082 Si
atom 16.2555165440678024 21.6740217565548328 21.6740217568891040 Si
atom 16.2555165440668006 24.3832744761318345 24.3832744764991070 Si
atom 16.2555165441857987 -0.0000000000411652 27.0925271960891010 Si
atom 16.2555165440747977 2.7092527195158382 2.7092527196191059 Si
atom 16.2555165440737994 5.4185054390928400 5.4185054392291079 Si
atom 18.9647693014248020 8.1277581586598373 10.8370108784581056 Si
atom 18.9647693014238001 10.8370108782368373 13.5462635980681050 Si
atom 18.9647693014228018 13.5462635978138373 16.2555163176781043 Si
atom 18.9647693014218000 16.2555163173908355 18.9647690372881037 Si
atom 18.9647693014208016 18.9647690369678372 21.6740217568981031 Si
atom 18.9647693014198033 21.6740217565448354 24.3832744765080989 Si
atom 18.9647693014188015 24.3832744761218372 27.0925271961181018 Si
atom 18.9647693014278005 -0.0000000000711634 2.7092527196281058 Si
atom 18.9647693014267986 2.7092527195058382 5.4185054392381025 Si
atom 18.9647693014258039 5.4185054390828409 8.1277581588481098 Si
atom 21.6740220587768029 8.1277581586498382 13.5462635980771058 Si
atom 21.6740220587758010 10.8370108782268382 16.2555163176871069 Si
atom 21.6740220587748027 13.5462635978038382 18.9647690372971063 Si
atom 21.6740220587738044 16.2555163173808346 21.6740217569071056 Si
atom 21.6740220587728025 18.9647690369578399 24.3832744765171050 Si
atom 21.6740220587718042 21.6740217565348345 27.0925271961271008 Si
atom 21.6740220586608032 24.3832744760918381 2.7092527196571052 Si
atom 21.6740220587798014 -0.0000000000811633 5.4185054392471086 Si
atom 21.6740220587788031 2.7092527194958391 8.1277581588571053 Si
atom 21.6740220587778047 5.4185054390728400 10.8370108784671135 Si
atom 24.3832748161287967 8.1277581586398391 16.2555163176961059 Si
atom 24.3832748161277948 10.8370108782168391 18.9647690373061053 Si
atom 24.3832748161268000 13.5462635977938373 21.6740217569161047 Si
atom 24.3832748161257982 16.2555163173708372 24.3832744765261076 Si
atom 24.3832748161247963 18.9647690369478390 27.0925271961361034 Si
atom 24.3832748160137989 21.6740217565048390 2.7092527196661056 Si
atom 24.3832748160127970 24.3832744760818407 5.4185054392761076 Si
atom 24.3832748161317987 -0.0000000000911631 8.1277581588661043 Si
atom 24.3832748161307968 2.7092527194858391 10.8370108784761072 Si
atom 24.3832748161297985 5.4185054390628409 13.5462635980861084 Si
atom 0.0000000000708020 8.1277581587498364 18.9647690372051052 Si
atom 0.0000000000698021 10.8370108783268329 21.6740217568151046 Si
atom 0.0000000000688022 13.5462635979038346 24.3832744764251039 Si
atom 0.0000000000678023 16.2555163174808328 27.0925271960351033 Si
atom -0.0000000000431969 18.9647690370378363 2.7092527195651046 Si
atom -0.0000000000441968 21.6740217566148345 5.4185054391751013 Si
atom -0.0000000000451967 24.3832744761918363 8.1277581587851024 Si
atom 0.0000000000738017 0.0000000000188337 10.8370108783751053 Si
atom 0.0000000000728018 2.7092527195958356 13.5462635979851029 Si
atom 0.0000000000718019 5.4185054391728382 16.2555163175951094 Si
atom 2.7092527574228042 8.1277581587398355 21.6740217568241071 Si
atom 2.7092527574218046 10.8370108783168337 24.3832744764341065 Si
atom 2.7092527574208045 13.5462635978938355 27.0925271960441059 Si
atom 2.7092527573098057 16.2555163174508372 2.7092527195741050 Si
atom 2.7092527573088052 18.9647690370278390 5.4185054391841074 Si
atom 2.7092527573078056 21.6740217566048337 8.1277581587941032 Si
atom 2.7092527573068059 24.3832744761818390 10.8370108784041062 Si
atom 2.7092527574258041 0.0000000000088339 13.5462635979941020 Si
atom 2.7092527574248044 2.7092527195858356 16.2555163176041049 Si
atom 2.7092527574238043 5.4185054391628373 18.9647690372141078 Si
atom 5.4185055147747940 8.1277581587298346 24.3832744764430984 Si
atom 5.4185055147737948 10.8370108783068346 27.0925271960531013 Si
atom 5.4185055146627956 13.5462635978638364 2.7092527195830991 Si
atom 5.4185055146617955 16.2555163174408364 5.4185054391931011 Si
atom 5.4185055146607954 18.9647690370178381 8.1277581588031040 Si
atom 5.4185055146597954 21.6740217565948363 10.8370108784130998 Si
atom 5.4185055146587953 24.3832744761718381 13.5462635980231028 Si
atom 5.4185055147777943 -0.0000000000011659 16.2555163176131003 Si
atom 5.4185055147767942 2.7092527195758365 18.9647690372230997 Si
atom 5.4185055147757950 5.4185054391528382 21.6740217568331026 Si
atom 10.8370110294558017 10.8370108782828360 27.0925271960751033 Si
atom 10.8370110293448008 13.5462635978398342 2.7092527196051051 Si
atom 10.8370110293438024 16.2555163174168378 5.4185054392151049 Si
atom 10.8370110293428024 18.9647690369938360 8.1277581588251060 Si
atom 10.8370110293418040 21.6740217565708377 10.8370108784351054 Si
atom 10.8370110293408022 24.3832744761478324 13.5462635980451029 Si
atom 10.8370110294598003 -0.0000000000251653 16.2555163176351058 Si
atom 10.8370110294588020 2.7092527195518370 18.9647690372451052 Si
atom 10.8370110294578001 5.4185054391288325 21.6740217568551046 Si
atom 10.8370110294568018 8.1277581587058396 24.3832744764651075 Si
atom 13.5462637866978017 10.8370108782528369 2.7092527196141054 Si
atom 13.5462637866968016 13.5462635978298351 5.4185054392241048 Si
atom 13.5462637866958016 16.2555163174068369 8.1277581588341050 Si
atom 13.5462637866948032 18.9647690369838386 10.8370108784441044 Si
atom 13.5462637866938032 21.6740217565608368 13.5462635980541055 Si
atom 13.5462637866928013 24.3832744761378279 16.2555163176641031 Si
atom 13.5462637868118012 -0.0000000000351651 18.9647690372541042 Si
atom 13.5462637868108011 2.7092527195418370 21.6740217568641036 Si
atom 13.5462637868098010 5.4185054391188334 24.3832744764741030 Si
atom 13.5462637868088009 8.1277581586958405 27.0925271960841094 Si
atom 16.2555165440497973 10.8370108782428378 5.4185054392331065 Si
atom 16.2555165440488025 13.5462635978198342 8.1277581588431058 Si
atom 16.2555165440478007 16.2555163173968396 10.8370108784531070 Si
atom 16.2555165440467988 18.9647690369738378 13.5462635980631045 Si
atom 16.2555165440458005 21.6740217565508324 16.2555163176731057 Si
atom 16.2555165440447986 24.3832744761278306 18.9647690372831015 Si
atom 16.2555165441638003 -0.0000000000451649 21.6740217568731026 Si
atom 16.2555165441627985 2.7092527195318370 24.3832744764831055 Si
atom 16.2555165441618001 5.4185054391088334 27.0925271960931013 Si
atom 16.2555165440507992 8.1277581586658432 2.7092527196231115 Si
atom 18.9647693014018017 10.8370108782328369 8.1277581588521048 Si
atom 18.9647693014008034 13.5462635978098351 10.8370108784621042 Si
atom 18.9647693013998015 16.2555163173868387 13.5462635980721053 Si
atom 18.9647693013987997 18.9647690369638333 16.2555163176821047 Si
atom 18.9647693013978014 21.6740217565408351 18.9647690372921076 Si
atom 18.9647693013968031 24.3832744761178297 21.6740217569021034 Si
atom 18.9647693015158012 -0.0000000000551647 24.3832744764921046 Si
atom 18.9647693015147993 2.7092527195218370 27.0925271961021039 Si
atom 18.9647693014038019 5.4185054390788352 2.7092527196321057 Si