#=======================================================
# FHI-aims file: ./geometry.in
# Created using the Atomic Simulation Environment (ASE)
# Tue Jun 10 15:11:38 2025
#=======================================================
lattice_vector 5.4088325884509993 0.0000000000639995 0.0000000001369997 
lattice_vector 0.0000000000629998 5.4088325742939993 0.0000000001030003 
lattice_vector 0.0000000001370002 0.0000000001020002 5.4088325742309999 
atom_frac -0.0061956686380067 -0.0346780250950977 0.0217847286792887 Si
atom_frac 0.0027310158973505 0.5374442981722514 0.4995454573850221 Si
atom_frac 0.5136252253510963 0.0277319380586913 0.4859045013224727 Si
atom_frac 0.4824994642180010 0.4633439972356302 -0.0048596239216118 Si
atom_frac 0.2203488426217245 0.2523857416356430 0.2631022161964698 Si
atom_frac 0.2872865739726109 0.7679684350473193 0.7561761222822817 Si
atom_frac 0.7938335004771901 0.2408289518028886 0.7361080998104276 Si
atom_frac 0.7058710460807026 0.7449746631586726 0.2422384982453621 Si
