#=======================================================
# FHI-aims file: geometry.in
# Created using the Atomic Simulation Environment (ASE)
# Tue Jun 10 14:38:54 2025
#=======================================================
lattice_vector 5.4088325884509993 0.0000000000639995 0.0000000001369997 
lattice_vector 0.0000000000629998 5.4088325742939993 0.0000000001030003 
lattice_vector 0.0000000001370002 0.0000000001020002 5.4088325742309999 
atom -0.0064262566560463 0.0658588982136525 -0.0516024948341924 Si
atom -0.0289412418671230 2.6092296316360493 2.6799913713209405 Si
atom 2.6980927558866905 -0.0446498552817366 2.7496346118301633 Si
atom 2.7138209089733838 2.7330733607090836 0.0639135835790707 Si
atom 1.3834652392969486 1.3095352863559937 1.3570101193179391 Si
atom 1.3505272302412510 4.0661010928402037 4.0015617166119037 Si
atom 4.0009418035920454 1.3884937253125840 4.0946015632415733 Si
atom 4.1150173264004550 4.0988555837096445 1.3313872523403818 Si
