#=======================================================
# FHI-aims file: geometry.in.supercell.0000K.017
# Created using the Atomic Simulation Environment (ASE)
# Tue Jun 10 14:20:49 2025

# Additional information:
#  created from force constants
#  T = 0.0 K
#  quantum:             True
#  deterministic:       False
#  plus_minus:          False
#  gauge_eigenvectors:  False
#  Random seed:         1279698870
#  Sample number:       18
#  Harmonic E_pot:        0.168eV (162.28K)
#=======================================================
lattice_vector 5.4088325884509993 0.0000000000639995 0.0000000001369997 
lattice_vector 0.0000000000629998 5.4088325742939993 0.0000000001030003 
lattice_vector 0.0000000001370002 0.0000000001020002 5.4088325742309999 
atom -0.0245397140500934 0.0510157730066667 -0.0454393691925804 Si
    velocity 0.0000000000000000 -0.0000000000000000 -0.0000000000000000
atom -0.0590235952430440 2.7035014351908719 2.7251991193148419 Si
    velocity 0.0000000000000000 -0.0000000000000000 0.0000000000000000
atom 2.7368532683149209 -0.0465590217836936 2.7450809833922545 Si
    velocity -0.0000000000000000 0.0000000000000000 -0.0000000000000000
atom 2.6902722383550572 2.6864918458450244 0.0006878088474830 Si
    velocity -0.0000000000000000 0.0000000000000000 -0.0000000000000000
atom 1.4071035233402658 1.2826420208794531 1.4208930473629959 Si
    velocity 0.0000000000000000 0.0000000000000000 0.0000000000000000
atom 1.3348518639514289 4.0884638526188626 4.0737772905459302 Si
    velocity -0.0000000000000000 -0.0000000000000000 -0.0000000000000000
atom 4.0804967923648254 1.3762932307620235 4.0072914837362150 Si
    velocity -0.0000000000000000 0.0000000000000000 -0.0000000000000000
atom 4.0604833887517575 4.0846485868960682 1.2990073594011562 Si
    velocity -0.0000000000000000 0.0000000000000000 0.0000000000000000
