#=======================================================
# FHI-aims file: geometry.in.supercell.0000K.014
# Created using the Atomic Simulation Environment (ASE)
# Tue Jun 10 14:20:49 2025

# Additional information:
#  created from force constants
#  T = 0.0 K
#  quantum:             True
#  deterministic:       False
#  plus_minus:          False
#  gauge_eigenvectors:  False
#  Random seed:         1279698870
#  Sample number:       15
#  Harmonic E_pot:        0.243eV (235.06K)
#=======================================================
lattice_vector 5.4088325884509993 0.0000000000639995 0.0000000001369997 
lattice_vector 0.0000000000629998 5.4088325742939993 0.0000000001030003 
lattice_vector 0.0000000001370002 0.0000000001020002 5.4088325742309999 
atom 0.0386658451701620 0.0113500147843964 -0.0430162696029778 Si
    velocity 0.0000000000000000 -0.0000000000000000 0.0000000000000000
atom 0.0222179345641020 2.7198466796677949 2.6870611662922181 Si
    velocity 0.0000000000000000 -0.0000000000000000 0.0000000000000000
atom 2.6639247915087645 0.0298516966947178 2.6899286753303238 Si
    velocity 0.0000000000000000 -0.0000000000000000 -0.0000000000000000
atom 2.6387886209528477 2.7277809116497362 0.0811815894792294 Si
    velocity -0.0000000000000000 0.0000000000000000 0.0000000000000000
atom 1.3312699154667984 1.3083313820172504 1.3408613934755460 Si
    velocity -0.0000000000000000 0.0000000000000000 -0.0000000000000000
atom 1.3635309568446621 4.0141463849310428 4.0300088848244862 Si
    velocity -0.0000000000000000 -0.0000000000000000 -0.0000000000000000
atom 4.0542532027939675 1.4040378344979294 4.1418796983431445 Si
    velocity 0.0000000000000000 -0.0000000000000000 -0.0000000000000000
atom 4.1138464985302532 4.0111528189237369 1.2985925852631353 Si
    velocity -0.0000000000000000 0.0000000000000000 0.0000000000000000
