#=======================================================
# FHI-aims file: geometry.in.supercell.0000K.027
# Created using the Atomic Simulation Environment (ASE)
# Tue Jun 10 14:20:49 2025

# Additional information:
#  created from force constants
#  T = 0.0 K
#  quantum:             True
#  deterministic:       False
#  plus_minus:          False
#  gauge_eigenvectors:  False
#  Random seed:         1279698870
#  Sample number:       28
#  Harmonic E_pot:        0.211eV (204.17K)
#=======================================================
lattice_vector 5.4088325884509993 0.0000000000639995 0.0000000001369997 
lattice_vector 0.0000000000629998 5.4088325742939993 0.0000000001030003 
lattice_vector 0.0000000001370002 0.0000000001020002 5.4088325742309999 
atom 0.0338801444489244 -0.0240160751140598 0.0251697421885116 Si
    velocity 0.0000000000000000 0.0000000000000000 0.0000000000000000
atom 0.0251070262799863 2.6628995443205241 2.6848826768619234 Si
    velocity -0.0000000000000000 -0.0000000000000000 0.0000000000000000
atom 2.7119458076434020 -0.0282806942177564 2.7036081566572738 Si
    velocity -0.0000000000000000 0.0000000000000000 0.0000000000000000
atom 2.6819701016442044 2.7399253893141240 -0.0195657418422342 Si
    velocity -0.0000000000000000 0.0000000000000000 -0.0000000000000000
atom 1.3762406418344939 1.3938395041437885 1.3454115957183166 Si
    velocity -0.0000000000000000 0.0000000000000000 -0.0000000000000000
atom 1.3462139456137272 4.1369379650659406 4.0951787476523549 Si
    velocity 0.0000000000000000 -0.0000000000000000 0.0000000000000000
atom 4.0230919612811329 1.3829991461403888 4.0227041253964044 Si
    velocity -0.0000000000000000 -0.0000000000000000 -0.0000000000000000
atom 4.0280481373211794 3.9621929438818664 1.3691084207847986 Si
    velocity 0.0000000000000000 -0.0000000000000000 -0.0000000000000000
