#=======================================================
# FHI-aims file: geometry.in.supercell.0000K.020
# Created using the Atomic Simulation Environment (ASE)
# Tue Jun 10 14:20:49 2025

# Additional information:
#  created from force constants
#  T = 0.0 K
#  quantum:             True
#  deterministic:       False
#  plus_minus:          False
#  gauge_eigenvectors:  False
#  Random seed:         1279698870
#  Sample number:       21
#  Harmonic E_pot:        0.420eV (405.92K)
#=======================================================
lattice_vector 5.4088325884509993 0.0000000000639995 0.0000000001369997 
lattice_vector 0.0000000000629998 5.4088325742939993 0.0000000001030003 
lattice_vector 0.0000000001370002 0.0000000001020002 5.4088325742309999 
atom -0.1185078371986225 -0.0226316496672861 -0.0215434316921898 Si
    velocity 0.0000000000000000 -0.0000000000000000 0.0000000000000000
atom 0.0669993906942861 2.7334942193532803 2.7553228254478270 Si
    velocity 0.0000000000000000 0.0000000000000000 0.0000000000000000
atom 2.7398702217203987 0.0132043831111694 2.7515607297953517 Si
    velocity -0.0000000000000000 0.0000000000000000 0.0000000000000000
atom 2.7480456292263362 2.7701495690440900 -0.0268567067691884 Si
    velocity -0.0000000000000000 -0.0000000000000000 0.0000000000000000
atom 1.3548173461028952 1.3556305122051615 1.2282464534607094 Si
    velocity 0.0000000000000000 -0.0000000000000000 -0.0000000000000000
atom 1.3315272248134611 4.1149752553462333 4.1451866280533531 Si
    velocity 0.0000000000000000 0.0000000000000000 0.0000000000000000
atom 3.9895514843518907 1.3228918447602132 4.0474287019195767 Si
    velocity 0.0000000000000000 -0.0000000000000000 0.0000000000000000
atom 4.1141943063203223 3.9387835890062695 1.3471525232036474 Si
    velocity 0.0000000000000000 -0.0000000000000000 -0.0000000000000000
