#=======================================================
# FHI-aims file: geometry.in.supercell.0000K.026
# Created using the Atomic Simulation Environment (ASE)
# Tue Jun 10 14:20:49 2025

# Additional information:
#  created from force constants
#  T = 0.0 K
#  quantum:             True
#  deterministic:       False
#  plus_minus:          False
#  gauge_eigenvectors:  False
#  Random seed:         1279698870
#  Sample number:       27
#  Harmonic E_pot:        0.226eV (218.35K)
#=======================================================
lattice_vector 5.4088325884509993 0.0000000000639995 0.0000000001369997 
lattice_vector 0.0000000000629998 5.4088325742939993 0.0000000001030003 
lattice_vector 0.0000000001370002 0.0000000001020002 5.4088325742309999 
atom -0.0174130607073711 0.0428352093501292 0.0462164896353321 Si
    velocity -0.0000000000000000 0.0000000000000000 0.0000000000000000
atom 0.0281028791811434 2.7151556694378920 2.6550465857239347 Si
    velocity 0.0000000000000000 0.0000000000000000 -0.0000000000000000
atom 2.7029921509548047 -0.0263178741472548 2.6826535019552069 Si
    velocity 0.0000000000000000 0.0000000000000000 0.0000000000000000
atom 2.8001102778082374 2.6856377788999075 -0.0600018607681869 Si
    velocity -0.0000000000000000 0.0000000000000000 0.0000000000000000
atom 1.3714542781421770 1.3574231232076166 1.3397174128602358 Si
    velocity -0.0000000000000000 0.0000000000000000 -0.0000000000000000
atom 1.3255934409558836 4.0282097355450119 4.1204024065706557 Si
    velocity 0.0000000000000000 -0.0000000000000000 0.0000000000000000
atom 4.0293421016054722 1.3289959719284146 4.0583441419053630 Si
    velocity -0.0000000000000000 0.0000000000000000 0.0000000000000000
atom 3.9863156982910843 4.0945581091427155 1.3841190455419539 Si
    velocity -0.0000000000000000 -0.0000000000000000 -0.0000000000000000
