#=======================================================
# FHI-aims file: geometry.in
# Created using the Atomic Simulation Environment (ASE)
# Tue Jun 10 14:37:36 2025
#=======================================================
lattice_vector 5.4088325884509993 0.0000000000639995 0.0000000001369997 
lattice_vector 0.0000000000629998 5.4088325742939993 0.0000000001030003 
lattice_vector 0.0000000001370002 0.0000000001020002 5.4088325742309999 
atom -0.0617545995520544 -0.0417669425906524 -0.0414577602969084 Si
atom 0.0631523515691867 2.6814444519442269 2.7685549804495837 Si
atom 2.6304897716910376 -0.0376909150414041 2.6587830458856723 Si
atom 2.7867196702375630 2.8162839876733088 0.0420649893635298 Si
atom 1.3399849084643518 1.3758748437202679 1.2362999036746749 Si
atom 1.3600853201302525 4.0878907960674891 4.1195154363354050 Si
atom 4.0059287344755381 1.3217413859096734 4.0681885449653832 Si
atom 4.1018916089617541 4.0227201156739394 1.3745485830405253 Si
