#=======================================================
# FHI-aims file: geometry.in.supercell.0000K.009
# Created using the Atomic Simulation Environment (ASE)
# Tue Jun 10 14:20:49 2025

# Additional information:
#  created from force constants
#  T = 0.0 K
#  quantum:             True
#  deterministic:       False
#  plus_minus:          False
#  gauge_eigenvectors:  False
#  Random seed:         1279698870
#  Sample number:       10
#  Harmonic E_pot:        0.297eV (286.87K)
#=======================================================
lattice_vector 5.4088325884509993 0.0000000000639995 0.0000000001369997 
lattice_vector 0.0000000000629998 5.4088325742939993 0.0000000001030003 
lattice_vector 0.0000000001370002 0.0000000001020002 5.4088325742309999 
atom 0.0156690045654184 -0.0006376405746514 0.0065794776571247 Si
    velocity 0.0000000000000000 -0.0000000000000000 -0.0000000000000000
atom -0.0095265430946720 2.8030360778561842 2.6688445502361335 Si
    velocity 0.0000000000000000 0.0000000000000000 0.0000000000000000
atom 2.6530294917938062 0.0476402347730691 2.7268494085635391 Si
    velocity 0.0000000000000000 0.0000000000000000 0.0000000000000000
atom 2.7956044456745319 2.6311695493919269 0.0839948541074829 Si
    velocity 0.0000000000000000 0.0000000000000000 0.0000000000000000
atom 1.3245980381246401 1.3707371520930172 1.3020952196168423 Si
    velocity 0.0000000000000000 -0.0000000000000000 0.0000000000000000
atom 1.3854942473938245 3.9892350267503125 4.0415231514977092 Si
    velocity -0.0000000000000000 -0.0000000000000000 -0.0000000000000000
atom 4.0203878876032677 1.3225812283286329 3.9852311054420246 Si
    velocity 0.0000000000000000 0.0000000000000000 -0.0000000000000000
atom 4.0412411940214703 4.0627360945739310 1.4113799562970051 Si
    velocity -0.0000000000000000 -0.0000000000000000 -0.0000000000000000
