#=======================================================
# FHI-aims file: geometry.in.supercell.0000K.007
# Created using the Atomic Simulation Environment (ASE)
# Tue Jun 10 14:20:49 2025

# Additional information:
#  created from force constants
#  T = 0.0 K
#  quantum:             True
#  deterministic:       False
#  plus_minus:          False
#  gauge_eigenvectors:  False
#  Random seed:         1279698870
#  Sample number:       8
#  Harmonic E_pot:        0.214eV (207.18K)
#=======================================================
lattice_vector 5.4088325884509993 0.0000000000639995 0.0000000001369997 
lattice_vector 0.0000000000629998 5.4088325742939993 0.0000000001030003 
lattice_vector 0.0000000001370002 0.0000000001020002 5.4088325742309999 
atom -0.0482647204169196 0.0564730069060762 0.0950988857749320 Si
    velocity 0.0000000000000000 0.0000000000000000 0.0000000000000000
atom 0.0291807656950875 2.6853263024797340 2.6056274935980768 Si
    velocity 0.0000000000000000 -0.0000000000000000 -0.0000000000000000
atom 2.7438349332930527 -0.0452350120714644 2.7236663186240717 Si
    velocity 0.0000000000000000 0.0000000000000000 -0.0000000000000000
atom 2.6647767623022256 2.7441564481989009 0.0114496506033678 Si
    velocity -0.0000000000000000 0.0000000000000000 -0.0000000000000000
atom 1.4509175475529326 1.3357380792281157 1.4142668312570550 Si
    velocity -0.0000000000000000 0.0000000000000000 0.0000000000000000
atom 1.2488620293897954 4.0409476159013362 4.0088952771137425 Si
    velocity 0.0000000000000000 0.0000000000000000 0.0000000000000000
atom 4.0494739302128178 1.3704224079548908 4.0224578136807558 Si
    velocity -0.0000000000000000 -0.0000000000000000 0.0000000000000000
atom 4.0877165178819181 4.0386688747007105 1.3450354527634238 Si
    velocity -0.0000000000000000 -0.0000000000000000 0.0000000000000000
