#=======================================================
# FHI-aims file: geometry.in.supercell.0000K.001
# Created using the Atomic Simulation Environment (ASE)
# Tue Jun 10 14:20:49 2025

# Additional information:
#  created from force constants
#  T = 0.0 K
#  quantum:             True
#  deterministic:       False
#  plus_minus:          False
#  gauge_eigenvectors:  False
#  Random seed:         1279698870
#  Sample number:       2
#  Harmonic E_pot:        0.356eV (344.35K)
#=======================================================
lattice_vector 5.4088325884509993 0.0000000000639995 0.0000000001369997 
lattice_vector 0.0000000000629998 5.4088325742939993 0.0000000001030003 
lattice_vector 0.0000000001370002 0.0000000001020002 5.4088325742309999 
atom -0.0697931395457087 -0.0177078372110493 -0.0009988598407455 Si
    velocity 0.0000000000000000 0.0000000000000000 -0.0000000000000000
atom 0.0191450026248174 2.7047914813767604 2.7402708239553966 Si
    velocity 0.0000000000000000 -0.0000000000000000 -0.0000000000000000
atom 2.7757244286701876 0.0187030975284609 2.7856974292068055 Si
    velocity 0.0000000000000000 -0.0000000000000000 -0.0000000000000000
atom 2.6706836145468786 2.7232031823848928 -0.0303288900036838 Si
    velocity 0.0000000000000000 -0.0000000000000000 -0.0000000000000000
atom 1.4574476283268261 1.3946368333886017 1.3359154386662968 Si
    velocity -0.0000000000000000 0.0000000000000000 0.0000000000000000
atom 1.3189487611151784 4.0535256170087539 3.9788835468834884 Si
    velocity -0.0000000000000000 -0.0000000000000000 -0.0000000000000000
atom 4.0368879156440123 1.4048113263473707 4.0447008841040510 Si
    velocity -0.0000000000000000 0.0000000000000000 0.0000000000000000
atom 4.0174535545424410 3.9445340225038290 1.3723573504423874 Si
    velocity -0.0000000000000000 0.0000000000000000 0.0000000000000000
