#=======================================================
# FHI-aims file: geometry.in.supercell.0000K.004
# Created using the Atomic Simulation Environment (ASE)
# Tue Jun 10 14:20:49 2025

# Additional information:
#  created from force constants
#  T = 0.0 K
#  quantum:             True
#  deterministic:       False
#  plus_minus:          False
#  gauge_eigenvectors:  False
#  Random seed:         1279698870
#  Sample number:       5
#  Harmonic E_pot:        0.107eV (103.46K)
#=======================================================
lattice_vector 5.4088325884509993 0.0000000000639995 0.0000000001369997 
lattice_vector 0.0000000000629998 5.4088325742939993 0.0000000001030003 
lattice_vector 0.0000000001370002 0.0000000001020002 5.4088325742309999 
atom -0.0087757886515231 0.0087670996405412 0.0391741698659638 Si
    velocity -0.0000000000000000 0.0000000000000000 0.0000000000000000
atom -0.0043743489637104 2.6729105678997001 2.7750549360917125 Si
    velocity -0.0000000000000000 -0.0000000000000000 -0.0000000000000000
atom 2.7260168229201267 -0.0231040129203562 2.6800715976973852 Si
    velocity 0.0000000000000000 0.0000000000000000 0.0000000000000000
atom 2.7059300958009671 2.7294968563396798 -0.0772381820839597 Si
    velocity 0.0000000000000000 -0.0000000000000000 -0.0000000000000000
atom 1.3494323022040275 1.3309825542424460 1.3575423777833069 Si
    velocity -0.0000000000000000 0.0000000000000000 -0.0000000000000000
atom 1.3319945339385522 4.1216703668310073 4.0369639971597451 Si
    velocity 0.0000000000000000 0.0000000000000000 -0.0000000000000000
atom 4.0368715938353272 1.3400057668594447 4.0357796032471960 Si
    velocity -0.0000000000000000 -0.0000000000000000 0.0000000000000000
atom 4.0894025548920627 4.0457685245419350 1.3791492236520013 Si
    velocity 0.0000000000000000 0.0000000000000000 0.0000000000000000
