#=======================================================
# FHI-aims file: geometry.in.supercell.0000K.005
# Created using the Atomic Simulation Environment (ASE)
# Tue Jun 10 14:20:49 2025

# Additional information:
#  created from force constants
#  T = 0.0 K
#  quantum:             True
#  deterministic:       False
#  plus_minus:          False
#  gauge_eigenvectors:  False
#  Random seed:         1279698870
#  Sample number:       6
#  Harmonic E_pot:        0.278eV (268.39K)
#=======================================================
lattice_vector 5.4088325884509993 0.0000000000639995 0.0000000001369997 
lattice_vector 0.0000000000629998 5.4088325742939993 0.0000000001030003 
lattice_vector 0.0000000001370002 0.0000000001020002 5.4088325742309999 
atom -0.0674500286177878 -0.0503815892844663 0.0168955638715882 Si
    velocity -0.0000000000000000 0.0000000000000000 -0.0000000000000000
atom -0.0121859280598700 2.7453840765663493 2.6474961365187188 Si
    velocity -0.0000000000000000 0.0000000000000000 -0.0000000000000000
atom 2.6411455678195894 -0.0251020213023512 2.7429886215838555 Si
    velocity 0.0000000000000000 -0.0000000000000000 0.0000000000000000
atom 2.8272229547941623 2.7097073338368327 0.0523268051185215 Si
    velocity 0.0000000000000000 0.0000000000000000 0.0000000000000000
atom 1.3684665882327716 1.3781044590090676 1.2902326033476044 Si
    velocity -0.0000000000000000 0.0000000000000000 -0.0000000000000000
atom 1.4072482044618337 4.0831966733291338 4.0859952504720063 Si
    velocity 0.0000000000000000 0.0000000000000000 0.0000000000000000
atom 4.0216703574296506 1.3131001383603600 4.0131548503992578 Si
    velocity 0.0000000000000000 -0.0000000000000000 0.0000000000000000
atom 4.0403800498479319 4.0724886529436457 1.3774078921071020 Si
    velocity 0.0000000000000000 -0.0000000000000000 -0.0000000000000000
