#=======================================================
# FHI-aims file: geometry.in.supercell.0000K.000
# Created using the Atomic Simulation Environment (ASE)
# Tue Jun 10 14:20:49 2025

# Additional information:
#  created from force constants
#  T = 0.0 K
#  quantum:             True
#  deterministic:       False
#  plus_minus:          False
#  gauge_eigenvectors:  False
#  Random seed:         1279698870
#  Sample number:       1
#  Harmonic E_pot:        0.290eV (280.35K)
#=======================================================
lattice_vector 5.4088325884509993 0.0000000000639995 0.0000000001369997 
lattice_vector 0.0000000000629998 5.4088325742939993 0.0000000001030003 
lattice_vector 0.0000000001370002 0.0000000001020002 5.4088325742309999 
atom -0.0564137576409063 0.0148214904359741 -0.0069365213571699 Si
    velocity -0.0000000000000000 -0.0000000000000000 -0.0000000000000000
atom 0.0045105155933338 2.7816362707901576 2.6145063844785024 Si
    velocity 0.0000000000000000 0.0000000000000000 -0.0000000000000000
atom 2.7589929742496913 -0.0249876646978131 2.7110868384980327 Si
    velocity 0.0000000000000000 -0.0000000000000000 0.0000000000000000
atom 2.7196353204140236 2.7031146701285578 0.0853517506967880 Si
    velocity -0.0000000000000000 -0.0000000000000000 -0.0000000000000000
atom 1.3909075039080667 1.3309774510700043 1.3484706729009337 Si
    velocity -0.0000000000000000 0.0000000000000000 0.0000000000000000
atom 1.3454738881517707 3.9542181078062169 4.0510494674882693 Si
    velocity -0.0000000000000000 -0.0000000000000000 0.0000000000000000
atom 4.0493827752915195 1.3618357498739500 4.0314091643339189 Si
    velocity -0.0000000000000000 0.0000000000000000 0.0000000000000000
atom 4.0140085460398423 4.1048816478023751 1.3915599663760738 Si
    velocity -0.0000000000000000 -0.0000000000000000 0.0000000000000000
