#=======================================================
# FHI-aims file: geometry.in
# Created using the Atomic Simulation Environment (ASE)
# Tue Jun 10 14:37:48 2025
#=======================================================
lattice_vector 5.4088325884509993 0.0000000000639995 0.0000000001369997 
lattice_vector 0.0000000000629998 5.4088325742939993 0.0000000001030003 
lattice_vector 0.0000000001370002 0.0000000001020002 5.4088325742309999 
atom -0.0856495187330677 -0.0007293122477518 0.0614833329242377 Si
atom 0.0375123499316430 2.7291211527326573 2.6701903569855920 Si
atom 2.7502593005469764 -0.0021912683749758 2.6826425630627155 Si
atom 2.6898172988795501 2.7203219394090228 0.0040722489232099 Si
atom 1.3677464266579136 1.3675095604950058 1.3061255908291887 Si
atom 1.2906748761050282 4.0933007108179709 4.1260304432527226 Si
atom 4.0578140992092271 1.3265806191128058 4.0142634820613905 Si
atom 4.1183229333163807 3.9925843213387386 1.3616897053780459 Si
