#=======================================================
# FHI-aims file: geometry.in
# Created using the Atomic Simulation Environment (ASE)
# Tue Jun 10 14:59:05 2025
#=======================================================
lattice_vector 5.4088325884509993 0.0000000000639995 0.0000000001369997 
lattice_vector 0.0000000000629998 5.4088325742939993 0.0000000001030003 
lattice_vector 0.0000000001370002 0.0000000001020002 5.4088325742309999 
atom 0.0151043063091771 -0.0295771228319699 0.0438384893141887 Si
atom -0.1014959655663289 2.5724342337861761 2.8901176251725458 Si
atom 2.8613223481020449 0.0150183136084477 2.5715410092454740 Si
atom 2.6219790282978601 2.8070612551495464 -0.0961557377053686 Si
atom 1.3924795162086157 1.4523494330530984 1.3853500223023523 Si
atom 1.3903246674199345 4.1672365202379780 3.9882302933633582 Si
atom 3.8714633287015316 1.2532411599122839 4.1391775994392637 Si
atom 4.1753205364221122 3.9887339305694121 1.3043984222625096 Si
