#=======================================================
# FHI-aims file: geometry.in
# Created using the Atomic Simulation Environment (ASE)
# Tue Jun 10 14:33:34 2025
#=======================================================
lattice_vector 5.4088325884509993 0.0000000000639995 0.0000000001369997 
lattice_vector 0.0000000000629998 5.4088325742939993 0.0000000001030003 
lattice_vector 0.0000000001370002 0.0000000001020002 5.4088325742309999 
atom -0.0335829568744209 0.0267279400528845 0.0327662033984214 Si
atom 0.0564115366709245 2.7323947519181373 2.7858216296147948 Si
atom 2.7522408788221937 -0.0594999750181432 2.6214148293080064 Si
atom 2.6119731855135746 2.7092817661083788 0.0063102083218674 Si
atom 1.3556990952005119 1.3401899161927524 1.3197446164943836 Si
atom 1.3773039454489671 4.1651438694978680 4.1257887037550471 Si
atom 4.0345214986327296 1.3820202473837999 3.9530229938114441 Si
atom 4.0719305824795136 3.9302392072431873 1.3816285387085472 Si
