#=======================================================
# FHI-aims file: ./geometry.in
# Created using the Atomic Simulation Environment (ASE)
# Tue Jun 10 14:48:02 2025
#=======================================================
lattice_vector 5.4088325884509993 0.0000000000639995 0.0000000001369997 
lattice_vector 0.0000000000629998 5.4088325742939993 0.0000000001030003 
lattice_vector 0.0000000001370002 0.0000000001020002 5.4088325742309999 
atom_frac 0.0111045818208994 0.0074662172727073 0.0069132311288935 Si
atom_frac -0.0154355218940343 0.4793885410247491 0.5047143029707956 Si
atom_frac 0.4863993017462293 0.0063953296640469 0.4887227103236330 Si
atom_frac 0.5102520055627320 0.5247522697141287 0.0060599580788760 Si
atom_frac 0.2667830719864582 0.2535499416407654 0.2286943883837133 Si
atom_frac 0.2493578663169716 0.7302525223213172 0.7337454197183840 Si
atom_frac 0.7446636027540837 0.2478553736186555 0.7485711164914000 Si
atom_frac 0.7468750916870208 0.7503398046965399 0.2825788729044014 Si
