#=======================================================
# FHI-aims file: ./geometry.in
# Created using the Atomic Simulation Environment (ASE)
# Tue Jun 10 15:14:43 2025
#=======================================================
lattice_vector 5.4088325884509993 0.0000000000639995 0.0000000001369997 
lattice_vector 0.0000000000629998 5.4088325742939993 0.0000000001030003 
lattice_vector 0.0000000001370002 0.0000000001020002 5.4088325742309999 
atom_frac 0.0077239179566226 0.0099376854411031 0.0320232145015979 Si
atom_frac -0.0200637211581010 0.4628837854946868 0.5159279452382356 Si
atom_frac 0.4923117645135098 -0.0015420525958039 0.4685263641448331 Si
atom_frac 0.5169769758402460 0.5158396417220437 -0.0015524092877922 Si
atom_frac 0.2662576782923073 0.2774965010295503 0.2309008533351701 Si
atom_frac 0.2242123947237736 0.7478470919990207 0.7298224454230294 Si
atom_frac 0.7554046582372520 0.2248673706807706 0.7858701901059679 Si
atom_frac 0.7571763315846558 0.7626699762620357 0.2384813965384390 Si
