#=======================================================
# FHI-aims file: geometry.in
# Created using the Atomic Simulation Environment (ASE)
# Tue Jun 10 14:40:10 2025
#=======================================================
lattice_vector 5.4088325884509993 0.0000000000639995 0.0000000001369997 
lattice_vector 0.0000000000629998 5.4088325742939993 0.0000000001030003 
lattice_vector 0.0000000001370002 0.0000000001020002 5.4088325742309999 
atom -0.0893623136458865 -0.0217294845149853 0.1163744218464936 Si
atom 0.1057517222293501 2.7010579120171703 2.6288787422754227 Si
atom 2.6481225832794228 0.0564191473254054 2.6317173127191111 Si
atom 2.7099516098087335 2.7183555879570038 -0.0139914037688854 Si
atom 1.3977777681419110 1.3533230838731958 1.2602362959317450 Si
atom 1.3316650273657546 4.0420232974698207 4.0954318286521678 Si
atom 4.1600333564452150 1.3611471130811879 4.0184851592908686 Si
atom 3.9625580122490587 4.0159010660603514 1.4893653664800302 Si
