#=======================================================
# FHI-aims file: ./geometry.in
# Created using the Atomic Simulation Environment (ASE)
# Tue Jun 10 15:00:43 2025
#=======================================================
lattice_vector 5.4088325884509993 0.0000000000639995 0.0000000001369997 
lattice_vector 0.0000000000629998 5.4088325742939993 0.0000000001030003 
lattice_vector 0.0000000001370002 0.0000000001020002 5.4088325742309999 
atom_frac -0.0047466171421585 0.0282048121797066 0.0252970419481521 Si
atom_frac 0.0055819583584151 0.4877721321092445 0.4940340455069084 Si
atom_frac 0.4998431187674739 -0.0125263770665221 0.5163619338635074 Si
atom_frac 0.5022981517285349 0.4953504728185038 -0.0207030467212067 Si
atom_frac 0.2893308591860781 0.2389842199509544 0.2528900089065549 Si
atom_frac 0.2193827449074889 0.7465089431711486 0.7546000244363861 Si
atom_frac 0.7466353704467550 0.2618060415624401 0.7348794423969804 Si
atom_frac 0.7416744137590235 0.7538997552789862 0.2426405496651345 Si
