#=======================================================
# FHI-aims file: geometry.in
# Created using the Atomic Simulation Environment (ASE)
# Tue Jun 10 14:22:07 2025
#=======================================================
lattice_vector 5.4088325884509993 0.0000000000639995 0.0000000001369997 
lattice_vector 0.0000000000629998 5.4088325742939993 0.0000000001030003 
lattice_vector 0.0000000001370002 0.0000000001020002 5.4088325742309999 
atom 0.0386658451701620 0.0113500147843964 -0.0430162696029778 Si
atom 0.0222179345641020 2.7198466796677949 2.6870611662922181 Si
atom 2.6639247915087645 0.0298516966947178 2.6899286753303238 Si
atom 2.6387886209528477 2.7277809116497362 0.0811815894792294 Si
atom 1.3312699154667984 1.3083313820172504 1.3408613934755460 Si
atom 1.3635309568446621 4.0141463849310428 4.0300088848244862 Si
atom 4.0542532027939675 1.4040378344979294 4.1418796983431445 Si
atom 4.1138464985302532 4.0111528189237369 1.2985925852631353 Si
