#=======================================================
# FHI-aims file: ./geometry.in
# Created using the Atomic Simulation Environment (ASE)
# Tue Jun 10 14:57:45 2025
#=======================================================
lattice_vector 5.4088325884509993 0.0000000000639995 0.0000000001369997 
lattice_vector 0.0000000000629998 5.4088325742939993 0.0000000001030003 
lattice_vector 0.0000000001370002 0.0000000001020002 5.4088325742309999 
atom_frac -0.0122788117691430 0.0184694535836205 -0.0321593399366864 Si
atom_frac 0.0083087701051155 0.4947894213671832 0.5225953763478487 Si
atom_frac 0.5260585613362140 -0.0229239808682793 0.4921831629118034 Si
atom_frac 0.4614855421168980 0.5165312327633287 0.0147053059856925 Si
atom_frac 0.2511378585978697 0.2265697798203017 0.2589807650448603 Si
atom_frac 0.2649665080876010 0.7553416959861133 0.7405561917879651 Si
atom_frac 0.7351257305628091 0.2699683848467819 0.7521615158772094 Si
atom_frac 0.7651958409170464 0.7412540124810600 0.2509770219777437 Si
