#=======================================================
# FHI-aims file: ./geometry.in
# Created using the Atomic Simulation Environment (ASE)
# Tue Jun 10 14:48:48 2025
#=======================================================
lattice_vector 5.4088325884509993 0.0000000000639995 0.0000000001369997 
lattice_vector 0.0000000000629998 5.4088325742939993 0.0000000001030003 
lattice_vector 0.0000000001370002 0.0000000001020002 5.4088325742309999 
atom_frac -0.0353459393314804 0.0130228461461856 0.0076066958237400 Si
atom_frac 0.0298301821214538 0.4874188502223154 0.4821020194939274 Si
atom_frac 0.4864439119172415 -0.0068337676424616 0.5260573526959044 Si
atom_frac 0.5283094280203361 0.5055862592549164 0.0000772717675844 Si
atom_frac 0.2715875010619199 0.2272071046741021 0.2183967257289504 Si
atom_frac 0.2271928906058024 0.7512625260882498 0.7850024604448500 Si
atom_frac 0.7412358105379678 0.2701518558297981 0.7113402800468732 Si
atom_frac 0.7507462150972961 0.7521843254317025 0.2694171940037784 Si
