#=======================================================
# FHI-aims file: geometry.in.supercell
# Created using the Atomic Simulation Environment (ASE)
# Mon Jun  9 19:05:31 2025

# Additional information:
#  Number of atoms:     8
#=======================================================
lattice_vector 5.4088325884509993 0.0000000000639995 0.0000000001369997 
lattice_vector 0.0000000000629998 5.4088325742939993 0.0000000001030003 
lattice_vector 0.0000000001370002 0.0000000001020002 5.4088325742309999 
atom 0.0000000000649060 0.0000000000730192 0.0000000000351574 Si
atom 0.0000000001649060 2.7044162872710187 2.7044162872021578 Si
atom 2.7044162943589058 0.0000000001560191 2.7044162872191575 Si
atom 2.7044162943219052 2.7044162872520183 0.0000000001551569 Si
atom 1.3522081470978400 1.3522081435419795 1.3522081435825901 Si
atom 1.3522081471978400 4.0566244307399799 4.0566244307495900 Si
atom 4.0566244413918398 1.3522081436249793 4.0566244307665897 Si
atom 4.0566244413548400 4.0566244307209800 1.3522081437025906 Si
