#=======================================================
# FHI-aims file: geometry.in
# Created using the Atomic Simulation Environment (ASE)
# Tue Jun 10 14:51:08 2025
#=======================================================
lattice_vector 5.4088325884509993 0.0000000000639995 0.0000000001369997 
lattice_vector 0.0000000000629998 5.4088325742939993 0.0000000001030003 
lattice_vector 0.0000000001370002 0.0000000001020002 5.4088325742309999 
atom -0.0386474699343460 0.0427448274016309 -0.0684856683347082 Si
atom 0.0424103055932058 2.6589195272765638 2.6124177904379704 Si
atom 2.6449145143794732 -0.0355980450862666 2.7030922141242386 Si
atom 2.8209347831148279 2.8038905142026382 0.0551075169361875 Si
atom 1.3496957965011747 1.3472705214997407 1.2815593246131993 Si
atom 1.3033507068482089 3.9485484728352285 4.1400047386858931 Si
atom 4.0510592081621510 1.3437146046276933 4.0826728634928466 Si
atom 4.0527799214530562 4.1170073004688419 1.4201289434680748 Si
