#=======================================================
# FHI-aims file: ./geometry.in
# Created using the Atomic Simulation Environment (ASE)
# Tue Jun 10 14:59:48 2025
#=======================================================
lattice_vector 5.4088325884509993 0.0000000000639995 0.0000000001369997 
lattice_vector 0.0000000000629998 5.4088325742939993 0.0000000001030003 
lattice_vector 0.0000000001370002 0.0000000001020002 5.4088325742309999 
atom_frac 0.0082473118825358 -0.0253227289188468 -0.0067617788290319 Si
atom_frac -0.0218652773485199 0.4976021141010777 0.4598518187531050 Si
atom_frac 0.4837401247134748 -0.0066029471245531 0.5003836619597605 Si
atom_frac 0.5274533120178619 0.5343990444965724 0.0207669524996429 Si
atom_frac 0.2591184775456922 0.2741127828378254 0.2548387628960998 Si
atom_frac 0.2533209728332830 0.6978972236726267 0.7492852048597265 Si
atom_frac 0.7454128696494826 0.2554231619301706 0.7655154179837592 Si
atom_frac 0.7445722086997146 0.7724913490051203 0.2561199598769446 Si
