#=======================================================
# FHI-aims file: ./geometry.in
# Created using the Atomic Simulation Environment (ASE)
# Tue Jun 10 14:58:53 2025
#=======================================================
lattice_vector 5.4088325884509993 0.0000000000639995 0.0000000001369997 
lattice_vector 0.0000000000629998 5.4088325742939993 0.0000000001030003 
lattice_vector 0.0000000001370002 0.0000000001020002 5.4088325742309999 
atom_frac 0.0412261223027077 -0.0235721060414908 0.0132818464630658 Si
atom_frac -0.0447399652147342 0.5121656313493301 0.4988589801275647 Si
atom_frac 0.5023855142985475 0.0282442718586814 0.5080832606529153 Si
atom_frac 0.4966314241588926 0.4682542112328882 -0.0018195262600149 Si
atom_frac 0.2244491245985129 0.2713525576951249 0.2572133161827734 Si
atom_frac 0.2743154336116488 0.7427097688492409 0.7443560142456541 Si
atom_frac 0.7767365386584830 0.2281394218605160 0.7483764524446899 Si
atom_frac 0.7289958075735338 0.7727062432336252 0.2316496561412482 Si
