#=======================================================
# FHI-aims file: ./geometry.in
# Created using the Atomic Simulation Environment (ASE)
# Tue Jun 10 15:11:11 2025
#=======================================================
lattice_vector 5.4088325884509993 0.0000000000639995 0.0000000001369997 
lattice_vector 0.0000000000629998 5.4088325742939993 0.0000000001030003 
lattice_vector 0.0000000001370002 0.0000000001020002 5.4088325742309999 
atom_frac 0.0300711686302681 0.0147368092677464 -0.0028664444612733 Si
atom_frac -0.0131738799380515 0.5716872565720676 0.4958531937687565 Si
atom_frac 0.4827224165713488 -0.0175563852283898 0.5005680568726578 Si
atom_frac 0.4962531044237599 0.4214307611182885 0.0062661400181884 Si
atom_frac 0.2158996872076744 0.2528310961238159 0.2992931720301225 Si
atom_frac 0.2921861221332111 0.7672414298243335 0.7780523868461408 Si
atom_frac 0.7746858786175401 0.2490943378846179 0.7283128384407164 Si
atom_frac 0.7213555023432036 0.7405346944619311 0.1945206564828010 Si
