#=======================================================
# FHI-aims file: ./geometry.in
# Created using the Atomic Simulation Environment (ASE)
# Tue Jun 10 15:20:12 2025
#=======================================================
lattice_vector 5.4088325884509993 0.0000000000639995 0.0000000001369997 
lattice_vector 0.0000000000629998 5.4088325742939993 0.0000000001030003 
lattice_vector 0.0000000001370002 0.0000000001020002 5.4088325742309999 
atom_frac -0.0026866149666454 0.0229473569523447 0.0102329006128913 Si
atom_frac 0.0002417800456631 0.5267864256194630 0.5272692570445063 Si
atom_frac 0.5089198112724498 -0.0172693755808044 0.4661369116818611 Si
atom_frac 0.4971592921167680 0.4754944463119528 -0.0067122971835188 Si
atom_frac 0.2496724125348850 0.2677281410172014 0.2784036008140331 Si
atom_frac 0.2529568536304695 0.7812523059371027 0.7762457807130365 Si
atom_frac 0.7383645224353871 0.2264824463484854 0.7197129814914771 Si
atom_frac 0.7553719429387122 0.7165782533729476 0.2287108648248619 Si
