#=======================================================
# FHI-aims file: geometry.in
# Created using the Atomic Simulation Environment (ASE)
# Tue Jun 10 15:23:05 2025
#=======================================================
lattice_vector 5.4088325884509993 0.0000000000639995 0.0000000001369997 
lattice_vector 0.0000000000629998 5.4088325742939993 0.0000000001030003 
lattice_vector 0.0000000001370002 0.0000000001020002 5.4088325742309999 
atom 0.1365719928991855 -0.0911728842648240 0.0650666375164750 Si
atom 0.1175547576439511 2.5043307364252958 2.8073691727825287 Si
atom 2.7512141229341762 0.2018384400176580 2.5406451003776565 Si
atom 2.6147561773393804 2.8664428565089453 -0.0116543596050361 Si
atom 1.3133048931438551 1.3968096597664441 1.1448203143168945 Si
atom 1.2770719843450600 4.0734679535488540 3.8511742634388115 Si
atom 3.9410102517753547 1.3594288979427800 4.2206491113471687 Si
atom 4.0750135864069552 3.9153520632473433 1.6084274832433203 Si
