#=======================================================
# FHI-aims file: ./geometry.in
# Created using the Atomic Simulation Environment (ASE)
# Tue Jun 10 14:40:35 2025
#=======================================================
lattice_vector 5.4088325884509993 0.0000000000639995 0.0000000001369997 
lattice_vector 0.0000000000629998 5.4088325742939993 0.0000000001030003 
lattice_vector 0.0000000001370002 0.0000000001020002 5.4088325742309999 
atom_frac 0.0088138028401831 0.0203830821125068 -0.0043009859156965 Si
atom_frac -0.0200003569961649 0.5117889993937288 0.5020112230633362 Si
atom_frac 0.5116307430399694 -0.0235099178957281 0.4935237628924690 Si
atom_frac 0.5012421815233692 0.4954918594857650 0.0052280934017806 Si
atom_frac 0.2498014979676946 0.2386978939529336 0.2871552657905435 Si
atom_frac 0.2491864122135546 0.7464470702674776 0.7520172272010577 Si
atom_frac 0.7313117620789722 0.2479793784891755 0.7290463462065569 Si
atom_frac 0.7680139573358641 0.7627216341822480 0.2353190673579167 Si
