#=======================================================
# FHI-aims file: geometry.in
# Created using the Atomic Simulation Environment (ASE)
# Tue Jun 10 15:06:09 2025
#=======================================================
lattice_vector 5.4088325884509993 0.0000000000639995 0.0000000001369997 
lattice_vector 0.0000000000629998 5.4088325742939993 0.0000000001030003 
lattice_vector 0.0000000001370002 0.0000000001020002 5.4088325742309999 
atom -0.0571429987785602 -0.1231328609959393 -0.0389033627299552 Si
atom 0.0529620706844952 2.6392458196557604 2.7819920342257736 Si
atom 2.5200765688699205 0.1341863886180708 2.6306644920270714 Si
atom 2.8544111008140520 2.7922543973415825 0.0521525674423772 Si
atom 1.3094055773497064 1.5014787107396572 1.1238442657116756 Si
atom 1.3768789382243365 4.0097807068698126 4.0360339417042432 Si
atom 4.0704716607189351 1.2381616063717580 4.1378260894101606 Si
atom 4.0994348479666245 4.0345229546936174 1.5028876956289010 Si
