#=======================================================
# FHI-aims file: ./geometry.in
# Created using the Atomic Simulation Environment (ASE)
# Tue Jun 10 14:40:11 2025
#=======================================================
lattice_vector 5.4088325884509993 0.0000000000639995 0.0000000001369997 
lattice_vector 0.0000000000629998 5.4088325742939993 0.0000000001030003 
lattice_vector 0.0000000001370002 0.0000000001020002 5.4088325742309999 
atom_frac -0.0165215528835905 -0.0040174074936973 0.0215156265704372 Si
atom_frac 0.0195516722697435 0.4993790942621117 0.4860344087457853 Si
atom_frac 0.4895922622686470 0.0104309287576362 0.4865592115365350 Si
atom_frac 0.5010233845217811 0.5025771366716822 -0.0025867696397092 Si
atom_frac 0.2584250381642017 0.2502061332540945 0.2329959891668016 Si
atom_frac 0.2462019309043375 0.7473005018840737 0.7571748195817900 Si
atom_frac 0.7691185275747168 0.2516526615050292 0.7429487054756740 Si
atom_frac 0.7326087371654759 0.7424709511385759 0.2753580085652658 Si
