#=======================================================
# FHI-aims file: ./geometry.in
# Created using the Atomic Simulation Environment (ASE)
# Tue Jun 10 15:21:27 2025
#=======================================================
lattice_vector 5.4088325884509993 0.0000000000639995 0.0000000001369997 
lattice_vector 0.0000000000629998 5.4088325742939993 0.0000000001030003 
lattice_vector 0.0000000001370002 0.0000000001020002 5.4088325742309999 
atom_frac -0.0360987625959329 -0.0083660285744515 -0.0164164496135325 Si
atom_frac 0.0014563529618767 0.5089229676509728 0.4996702535411349 Si
atom_frac 0.5491055373808377 0.0149596549972043 0.4931151298711697 Si
atom_frac 0.4884964285571408 0.4887417037669741 0.0210449556394315 Si
atom_frac 0.2455814255064935 0.2210108712286997 0.2727463391837728 Si
atom_frac 0.2571505544255476 0.7727953374407126 0.7342718307979498 Si
atom_frac 0.7508539659552671 0.2604582716300964 0.7600326072649295 Si
atom_frac 0.7434544978149371 0.7414772218475224 0.2355353333128498 Si
