#=======================================================
# FHI-aims file: geometry.in
# Created using the Atomic Simulation Environment (ASE)
# Tue Jun 10 14:58:27 2025
#=======================================================
lattice_vector 5.4088325884509993 0.0000000000639995 0.0000000001369997 
lattice_vector 0.0000000000629998 5.4088325742939993 0.0000000001030003 
lattice_vector 0.0000000001370002 0.0000000001020002 5.4088325742309999 
atom -0.0941563053859097 0.0668730513746419 -0.0004164076372941 Si
atom 0.0649664346183152 2.6646772778064460 2.7348577689461999 Si
atom 2.7871195541030893 0.0249349830248808 2.7095784487184473 Si
atom 2.5626568352498378 2.6868283809584677 0.0171925914742025 Si
atom 1.3157140494649382 1.1795344098855263 1.3915860430867584 Si
atom 1.3644287841336078 4.1236888643440075 3.9294446899362998 Si
atom 4.0496417617500020 1.4779785656396789 4.0793737635003540 Si
atom 4.1761266517849540 4.0019821902501294 1.3648808253771230 Si
