#=======================================================
# FHI-aims file: geometry.in.supercell
# Created using the Atomic Simulation Environment (ASE)
# Mon Jun  9 22:53:34 2025

# Additional information:
#  Number of atoms:     1728
#=======================================================
lattice_vector 32.5110330880919989 -0.0000000001439983 0.0000000001320051 
lattice_vector -0.0000000001439983 32.5110326348999976 0.0000000000239949 
lattice_vector 0.0000000001320008 0.0000000000240019 32.5110326352959973 
atom 0.0000000001618026 0.0000000000348389 32.5110326352391041 Si
atom 0.0000000000288020 2.7092527195878366 2.7092527195531049 Si
atom 0.0000000000278022 5.4185054391648366 5.4185054391631047 Si
atom 0.0000000000268024 8.1277581587418375 8.1277581587731031 Si
atom 0.0000000000258026 10.8370108783188375 10.8370108783831025 Si
atom 0.0000000000248028 13.5462635978958357 13.5462635979931019 Si
atom 0.0000000000238030 16.2555163174728357 16.2555163176030995 Si
atom 0.0000000000228032 18.9647690370498374 18.9647690372131024 Si
atom 0.0000000000218034 21.6740217566268356 21.6740217568230982 Si
atom 0.0000000000208036 24.3832744762038374 24.3832744764331011 Si
atom 0.0000000000198039 27.0925271957808356 27.0925271960431004 Si
atom 0.0000000000188041 29.8017799153578373 29.8017799156530998 Si
atom 2.7092527573818019 0.0000000000008373 2.7092527195621061 Si
atom 2.7092527573808023 2.7092527195778371 5.4185054391721055 Si
atom 2.7092527573798022 5.4185054391548375 8.1277581587821057 Si
atom 2.7092527573788026 8.1277581587318384 10.8370108783921033 Si
atom 2.7092527573778029 10.8370108783088366 13.5462635980021027 Si
atom 2.7092527573768033 13.5462635978858366 16.2555163176121020 Si
atom 2.7092527573758032 16.2555163174628348 18.9647690372221014 Si
atom 2.7092527573748035 18.9647690370398365 21.6740217568320972 Si
atom 2.7092527573738039 21.6740217566168347 24.3832744764420966 Si
atom 2.7092527573728034 24.3832744761938400 27.0925271960520995 Si
atom 2.7092527573718037 27.0925271957708382 29.8017799156620953 Si
atom 2.7092527573708041 29.8017799153478364 32.5110326352721017 Si
atom 5.4185055147338010 -0.0000000000091624 5.4185054391811063 Si
atom 5.4185055147328010 2.7092527195678375 8.1277581587911065 Si
atom 5.4185055147318018 5.4185054391448375 10.8370108784011041 Si
atom 5.4185055147308017 8.1277581587218375 13.5462635980111035 Si
atom 5.4185055147298016 10.8370108782988375 16.2555163176211011 Si
atom 5.4185055147288024 13.5462635978758374 18.9647690372311040 Si
atom 5.4185055147278023 16.2555163174528374 21.6740217568410998 Si
atom 5.4185055147268031 18.9647690370298356 24.3832744764510991 Si
atom 5.4185055147258030 21.6740217566068338 27.0925271960610985 Si
atom 5.4185055147248029 24.3832744761838391 29.8017799156711014 Si
atom 5.4185055147238037 27.0925271957608373 32.5110326352810972 Si
atom 5.4185055145908025 29.8017799153138370 2.7092527195951015 Si
atom 8.1277582720858010 -0.0000000000191621 8.1277581588001055 Si
atom 8.1277582720848027 2.7092527195578375 10.8370108784101031 Si
atom 8.1277582720838009 5.4185054391348384 13.5462635980201043 Si
atom 8.1277582720828025 8.1277581587118384 16.2555163176301036 Si
atom 8.1277582720818025 10.8370108782888384 18.9647690372400994 Si
atom 8.1277582720808024 13.5462635978658366 21.6740217568500988 Si
atom 8.1277582720798023 16.2555163174428365 24.3832744764600982 Si
atom 8.1277582720788040 18.9647690370198383 27.0925271960700975 Si
atom 8.1277582720778021 21.6740217565968365 29.8017799156800933 Si
atom 8.1277582720768038 24.3832744761738383 32.5110326352900998 Si
atom 8.1277582719438026 27.0925271957268343 2.7092527196041023 Si
atom 8.1277582719428025 29.8017799153038361 5.4185054392140994 Si
atom 10.8370110294378001 -0.0000000000291618 10.8370108784191039 Si
atom 10.8370110294368001 2.7092527195478380 13.5462635980291033 Si
atom 10.8370110294358000 5.4185054391248384 16.2555163176391027 Si
atom 10.8370110294347999 8.1277581587018393 18.9647690372491056 Si
atom 10.8370110294338016 10.8370108782788375 21.6740217568591014 Si
atom 10.8370110294327997 13.5462635978558374 24.3832744764690972 Si
atom 10.8370110294318014 16.2555163174328356 27.0925271960791001 Si
atom 10.8370110294308013 18.9647690370098374 29.8017799156890995 Si
atom 10.8370110294298012 21.6740217565868356 32.5110326352990953 Si
atom 10.8370110292968000 24.3832744761398388 2.7092527196131031 Si
atom 10.8370110292958017 27.0925271957168370 5.4185054392231002 Si
atom 10.8370110292947999 29.8017799152938352 8.1277581588330978 Si
atom 13.5462637867898010 -0.0000000000391615 13.5462635980381059 Si
atom 13.5462637867888027 2.7092527195378384 16.2555163176481052 Si
atom 13.5462637867878009 5.4185054391148384 18.9647690372581046 Si
atom 13.5462637867868025 8.1277581586918384 21.6740217568681004 Si
atom 13.5462637867858025 10.8370108782688384 24.3832744764781033 Si
atom 13.5462637867848024 13.5462635978458383 27.0925271960881027 Si
atom 13.5462637867838023 16.2555163174228383 29.8017799156980985 Si
atom 13.5462637867828040 18.9647690369998365 32.5110326353080978 Si
atom 13.5462637866498010 21.6740217565528326 2.7092527196221039 Si
atom 13.5462637866488027 24.3832744761298379 5.4185054392321081 Si
atom 13.5462637866478026 27.0925271957068361 8.1277581588420986 Si
atom 13.5462637866468025 29.8017799152838379 10.8370108784521015 Si
atom 16.2555165441418019 -0.0000000000491612 16.2555163176571078 Si
atom 16.2555165441408036 2.7092527195278389 18.9647690372671072 Si
atom 16.2555165441398053 5.4185054391048393 21.6740217568771065 Si
atom 16.2555165441388034 8.1277581586818393 24.3832744764871059 Si
atom 16.2555165441378016 10.8370108782588392 27.0925271960971052 Si
atom 16.2555165441368068 13.5462635978358374 29.8017799157071011 Si
atom 16.2555165441358049 16.2555163174128374 32.5110326353171004 Si
atom 16.2555165440028020 18.9647690369658370 2.7092527196311047 Si
atom 16.2555165440018037 21.6740217565428352 5.4185054392411018 Si
atom 16.2555165440008054 24.3832744761198370 8.1277581588511065 Si
atom 16.2555165439998035 27.0925271956968352 10.8370108784611023 Si
atom 16.2555165439988052 29.8017799152738370 13.5462635980711070 Si
atom 18.9647693014938028 -0.0000000000591609 18.9647690372761062 Si
atom 18.9647693014928009 2.7092527195178389 21.6740217568861055 Si
atom 18.9647693014918026 5.4185054390948393 24.3832744764961049 Si
atom 18.9647693014908008 8.1277581586718401 27.0925271961061043 Si
atom 18.9647693014898024 10.8370108782488384 29.8017799157161001 Si
atom 18.9647693014888041 13.5462635978258383 32.5110326353261030 Si
atom 18.9647693013558012 16.2555163173788344 2.7092527196401055 Si
atom 18.9647693013547993 18.9647690369558362 5.4185054392501026 Si
atom 18.9647693013538046 21.6740217565328344 8.1277581588601002 Si
atom 18.9647693013528027 24.3832744761098397 10.8370108784701031 Si
atom 18.9647693013518008 27.0925271956868379 13.5462635980801007 Si
atom 18.9647693013508025 29.8017799152638361 16.2555163176901054 Si
atom 21.6740220588458037 -0.0000000000691606 21.6740217568951081 Si
atom 21.6740220588448018 2.7092527195078393 24.3832744765051075 Si
atom 21.6740220588438035 5.4185054390848393 27.0925271961151068 Si
atom 21.6740220588428052 8.1277581586618393 29.8017799157251062 Si
atom 21.6740220588418033 10.8370108782388392 32.5110326353351056 Si
atom 21.6740220587088039 13.5462635977918371 2.7092527196491063 Si
atom 21.6740220587078021 16.2555163173688371 5.4185054392591034 Si
atom 21.6740220587068038 18.9647690369458353 8.1277581588691081 Si
atom 21.6740220587058054 21.6740217565228335 10.8370108784791039 Si
atom 21.6740220587048036 24.3832744760998388 13.5462635980891086 Si
atom 21.6740220587038017 27.0925271956768370 16.2555163176991044 Si
atom 21.6740220587028070 29.8017799152538387 18.9647690373091038 Si
atom 24.3832748161977975 -0.0000000000791603 24.3832744765141030 Si
atom 24.3832748161967956 2.7092527194978393 27.0925271961241023 Si
atom 24.3832748161958008 5.4185054390748402 29.8017799157341052 Si
atom 24.3832748161947990 8.1277581586518401 32.5110326353441010 Si
atom 24.3832748160617960 10.8370108782048380 2.7092527196581000 Si
atom 24.3832748160607977 13.5462635977818362 5.4185054392681042 Si
atom 24.3832748160597994 16.2555163173588362 8.1277581588781018 Si
atom 24.3832748160587975 18.9647690369358379 10.8370108784880976 Si
atom 24.3832748160577992 21.6740217565128361 13.5462635980980952 Si
atom 24.3832748160567974 24.3832744760898414 16.2555163177080999 Si
atom 24.3832748160557991 27.0925271956668361 18.9647690373180957 Si
atom 24.3832748160548007 29.8017799152438378 21.6740217569280986 Si
atom 27.0925275735497948 -0.0000000000891600 27.0925271961331049 Si
atom 27.0925275735487965 2.7092527194878393 29.8017799157431007 Si
atom 27.0925275735477982 5.4185054390648402 32.5110326353531036 Si
atom 27.0925275734147952 8.1277581586178389 2.7092527196671008 Si
atom 27.0925275734137934 10.8370108781948371 5.4185054392770979 Si
atom 27.0925275734127986 13.5462635977718371 8.1277581588871026 Si
atom 27.0925275734117967 16.2555163173488353 10.8370108784970984 Si
atom 27.0925275734107949 18.9647690369258370 13.5462635981070960 Si
atom 27.0925275734097966 21.6740217565028352 16.2555163177170989 Si
atom 27.0925275734087982 24.3832744760798406 18.9647690373271054 Si
atom 27.0925275734077964 27.0925271956568388 21.6740217569370941 Si
atom 27.0925275734067981 29.8017799152338405 24.3832744765470970 Si
atom 29.8017803309017992 -0.0000000000991597 29.8017799157521068 Si
atom 29.8017803309007974 2.7092527194778397 32.5110326353620991 Si
atom 29.8017803307677980 5.4185054390308380 2.7092527196761091 Si
atom 29.8017803307667961 8.1277581586078380 5.4185054392861058 Si
atom 29.8017803307657978 10.8370108781848380 8.1277581588961034 Si
atom 29.8017803307647995 13.5462635977618380 10.8370108785060992 Si
atom 29.8017803307637976 16.2555163173388380 13.5462635981160968 Si
atom 29.8017803307627958 18.9647690369158397 16.2555163177261015 Si
atom 29.8017803307618010 21.6740217564928344 18.9647690373360973 Si
atom 29.8017803307607991 24.3832744760698397 21.6740217569461038 Si
atom 29.8017803307597973 27.0925271956468379 24.3832744765560996 Si
atom 29.8017803307587990 29.8017799152238396 27.0925271961661025 Si
atom 2.7092527574908027 2.7092527195978389 32.5110326352521000 Si
atom 2.7092527573578020 5.4185054391508372 2.7092527195661047 Si
atom 2.7092527573568024 8.1277581587278380 5.4185054391761041 Si
atom 2.7092527573558027 10.8370108783048362 8.1277581587861025 Si
atom 2.7092527573548031 13.5462635978818362 10.8370108783961037 Si
atom 2.7092527573538030 16.2555163174588344 13.5462635980061012 Si
atom 2.7092527573528034 18.9647690370358326 16.2555163176160988 Si
atom 2.7092527573518037 21.6740217566128379 18.9647690372261017 Si
atom 2.7092527573508036 24.3832744761898361 21.6740217568360976 Si
atom 2.7092527573498040 27.0925271957668414 24.3832744764461005 Si
atom 2.7092527573488039 29.8017799153438361 27.0925271960560998 Si
atom 2.7092527574918024 0.0000000000208374 29.8017799156421042 Si
atom 5.4185055147108017 2.7092527195638376 2.7092527195751059 Si
atom 5.4185055147098025 5.4185054391408372 5.4185054391851049 Si
atom 5.4185055147088024 8.1277581587178371 8.1277581587951051 Si
atom 5.4185055147078023 10.8370108782948371 10.8370108784051045 Si
atom 5.4185055147068031 13.5462635978718371 13.5462635980151020 Si
atom 5.4185055147058030 16.2555163174488371 16.2555163176251014 Si
atom 5.4185055147048038 18.9647690370258317 18.9647690372351008 Si
atom 5.4185055147038037 21.6740217566028370 21.6740217568451001 Si
atom 5.4185055147028036 24.3832744761798352 24.3832744764550959 Si
atom 5.4185055147018044 27.0925271957568405 27.0925271960650988 Si
atom 5.4185055147008043 29.8017799153338387 29.8017799156750982 Si
atom 5.4185055148438028 0.0000000000108377 32.5110326352611025 Si
atom 8.1277582720628025 2.7092527195538376 5.4185054391941065 Si
atom 8.1277582720618007 5.4185054391308380 8.1277581588041059 Si
atom 8.1277582720608024 8.1277581587078380 10.8370108784141053 Si
atom 8.1277582720598023 10.8370108782848380 13.5462635980241028 Si
atom 8.1277582720588022 13.5462635978618362 16.2555163176341004 Si
atom 8.1277582720578021 16.2555163174388362 18.9647690372441033 Si
atom 8.1277582720568038 18.9647690370158344 21.6740217568540992 Si
atom 8.1277582720558019 21.6740217565928397 24.3832744764640985 Si
atom 8.1277582720548036 24.3832744761698343 27.0925271960740979 Si
atom 8.1277582720538035 27.0925271957468397 29.8017799156841008 Si
atom 8.1277582720528034 29.8017799153238379 32.5110326352941001 Si
atom 8.1277582720638009 -0.0000000000231639 2.7092527195841063 Si
atom 10.8370110294147999 2.7092527195438381 8.1277581588131049 Si
atom 10.8370110294137998 5.4185054391208380 10.8370108784231043 Si
atom 10.8370110294127997 8.1277581586978389 13.5462635980331036 Si
atom 10.8370110294118014 10.8370108782748371 16.2555163176431030 Si
atom 10.8370110294107995 13.5462635978518371 18.9647690372530988 Si
atom 10.8370110294098012 16.2555163174288353 21.6740217568631017 Si
atom 10.8370110294088011 18.9647690370058335 24.3832744764730975 Si
atom 10.8370110294078010 21.6740217565828388 27.0925271960830969 Si
atom 10.8370110294068009 24.3832744761598370 29.8017799156930963 Si
atom 10.8370110294058026 27.0925271957368423 32.5110326353030956 Si
atom 10.8370110292727997 29.8017799152898348 2.7092527196171021 Si
atom 10.8370110294158000 -0.0000000000331636 5.4185054392031047 Si
atom 13.5462637867668008 2.7092527195338385 10.8370108784321051 Si
atom 13.5462637867657989 5.4185054391108380 13.5462635980421027 Si
atom 13.5462637867648006 8.1277581586878380 16.2555163176521020 Si
atom 13.5462637867638005 10.8370108782648380 18.9647690372621049 Si
atom 13.5462637867628004 13.5462635978418380 21.6740217568721008 Si
atom 13.5462637867618003 16.2555163174188380 24.3832744764820966 Si
atom 13.5462637867608020 18.9647690369958326 27.0925271960920995 Si
atom 13.5462637867598001 21.6740217565728379 29.8017799157020988 Si
atom 13.5462637867588018 24.3832744761498361 32.5110326353120982 Si
atom 13.5462637866258007 27.0925271957028393 2.7092527196261029 Si
atom 13.5462637866248006 29.8017799152798375 5.4185054392360996 Si
atom 13.5462637867677991 -0.0000000000431633 8.1277581588221022 Si
atom 16.2555165441187981 2.7092527195238389 13.5462635980511052 Si
atom 16.2555165441177998 5.4185054391008389 16.2555163176611046 Si
atom 16.2555165441168015 8.1277581586778389 18.9647690372711040 Si
atom 16.2555165441157996 10.8370108782548389 21.6740217568811033 Si
atom 16.2555165441148013 13.5462635978318371 24.3832744764911027 Si
atom 16.2555165441137994 16.2555163174088371 27.0925271961011020 Si
atom 16.2555165441128011 18.9647690369858353 29.8017799157111014 Si
atom 16.2555165441118028 21.6740217565628406 32.5110326353211008 Si
atom 16.2555165439787999 24.3832744761158331 2.7092527196351042 Si
atom 16.2555165439777980 27.0925271956928384 5.4185054392451084 Si
atom 16.2555165439768032 29.8017799152698366 8.1277581588550980 Si
atom 16.2555165441198000 -0.0000000000531630 10.8370108784411077 Si
atom 18.9647693014708025 2.7092527195138389 16.2555163176701072 Si
atom 18.9647693014698078 5.4185054390908389 18.9647690372801065 Si
atom 18.9647693014688059 8.1277581586678398 21.6740217568901059 Si
atom 18.9647693014678040 10.8370108782448380 24.3832744765001088 Si
atom 18.9647693014668057 13.5462635978218380 27.0925271961101046 Si
atom 18.9647693014658074 16.2555163173988362 29.8017799157201004 Si
atom 18.9647693014648056 18.9647690369758344 32.5110326353301033 Si
atom 18.9647693013318062 21.6740217565288376 2.7092527196441050 Si
atom 18.9647693013308043 24.3832744761058358 5.4185054392541021 Si
atom 18.9647693013298060 27.0925271956828411 8.1277581588641059 Si
atom 18.9647693013288077 29.8017799152598357 10.8370108784741035 Si
atom 18.9647693014718044 -0.0000000000631627 13.5462635980601114 Si
atom 21.6740220588228034 2.7092527195038394 18.9647690372891056 Si
atom 21.6740220588218051 5.4185054390808389 21.6740217568991049 Si
atom 21.6740220588208032 8.1277581586578389 24.3832744765091043 Si
atom 21.6740220588198014 10.8370108782348389 27.0925271961191036 Si
atom 21.6740220588188066 13.5462635978118389 29.8017799157291030 Si
atom 21.6740220588178047 16.2555163173888388 32.5110326353391059 Si
atom 21.6740220586848018 18.9647690369418314 2.7092527196531058 Si
atom 21.6740220586838035 21.6740217565188367 5.4185054392631029 Si
atom 21.6740220586828052 24.3832744760958349 8.1277581588730996 Si
atom 21.6740220586818033 27.0925271956728402 10.8370108784831043 Si
atom 21.6740220586808050 29.8017799152498384 13.5462635980931001 Si
atom 21.6740220588238017 -0.0000000000731624 16.2555163176791098 Si
atom 24.3832748161747972 2.7092527194938398 21.6740217569081075 Si
atom 24.3832748161737989 5.4185054390708398 24.3832744765181104 Si
atom 24.3832748161727970 8.1277581586478398 27.0925271961281062 Si
atom 24.3832748161717987 10.8370108782248398 29.8017799157381056 Si
atom 24.3832748161708004 13.5462635978018380 32.5110326353481014 Si
atom 24.3832748160377975 16.2555163173548358 2.7092527196621066 Si
atom 24.3832748160367956 18.9647690369318340 5.4185054392721037 Si
atom 24.3832748160358008 21.6740217565088393 8.1277581588821075 Si
atom 24.3832748160347990 24.3832744760858375 10.8370108784921051 Si
atom 24.3832748160337971 27.0925271956628393 13.5462635981021080 Si
atom 24.3832748160327988 29.8017799152398375 16.2555163177121074 Si
atom 24.3832748161757991 -0.0000000000831621 18.9647690372981081 Si
atom 27.0925275735267945 2.7092527194838398 24.3832744765271023 Si
atom 27.0925275735257962 5.4185054390608398 27.0925271961371017 Si
atom 27.0925275735247979 8.1277581586378407 29.8017799157471046 Si
atom 27.0925275735237960 10.8370108782148389 32.5110326353571040 Si
atom 27.0925275733907966 13.5462635977678367 2.7092527196711003 Si
atom 27.0925275733897948 16.2555163173448349 5.4185054392811045 Si
atom 27.0925275733887965 18.9647690369218331 8.1277581588911012 Si
atom 27.0925275733877982 21.6740217564988384 10.8370108785010988 Si
atom 27.0925275733867963 24.3832744760758366 13.5462635981110946 Si
atom 27.0925275733857944 27.0925271956528420 16.2555163177210993 Si
atom 27.0925275733847997 29.8017799152298402 18.9647690373310951 Si
atom 27.0925275735277964 -0.0000000000931618 21.6740217569171065 Si
atom 29.8017803308787919 2.7092527194738398 27.0925271961461043 Si
atom 29.8017803308777971 5.4185054390508398 29.8017799157561001 Si
atom 29.8017803308767952 8.1277581586278398 32.5110326353660994 Si
atom 29.8017803307437923 10.8370108781808376 2.7092527196801011 Si
atom 29.8017803307427940 13.5462635977578376 5.4185054392900982 Si
atom 29.8017803307417957 16.2555163173348376 8.1277581589001020 Si
atom 29.8017803307407938 18.9647690369118358 10.8370108785100996 Si
atom 29.8017803307397955 21.6740217564888376 13.5462635981200954 Si
atom 29.8017803307387936 24.3832744760658358 16.2555163177301019 Si
atom 29.8017803307377953 27.0925271956428411 18.9647690373401048 Si
atom 29.8017803307367970 29.8017799152198393 21.6740217569500935 Si
atom 29.8017803308797937 -0.0000000001031615 24.3832744765361049 Si
atom 0.0000000001388005 2.7092527196078384 29.8017799156331016 Si
atom 0.0000000001378007 5.4185054391848384 32.5110326352430974 Si
atom 0.0000000000048001 8.1277581587378371 2.7092527195571039 Si
atom 0.0000000000038003 10.8370108783148371 5.4185054391671006 Si
atom 0.0000000000028005 13.5462635978918353 8.1277581587770982 Si
atom 0.0000000000018007 16.2555163174688353 10.8370108783870940 Si
atom 0.0000000000008009 18.9647690370458335 13.5462635979970916 Si
atom -0.0000000000001989 21.6740217566228388 16.2555163176070963 Si
atom -0.0000000000011987 24.3832744761998335 18.9647690372170921 Si
atom -0.0000000000021984 27.0925271957768388 21.6740217568270985 Si
atom -0.0000000000031982 29.8017799153538370 24.3832744764370943 Si
atom 0.0000000001398003 0.0000000000308371 27.0925271960231022 Si
atom 5.4185055148198025 5.4185054391608380 32.5110326352651029 Si
atom 5.4185055146868013 8.1277581587138350 2.7092527195791050 Si
atom 5.4185055146858012 10.8370108782908368 5.4185054391891043 Si
atom 5.4185055146848020 13.5462635978678367 8.1277581587991037 Si
atom 5.4185055146838019 16.2555163174448367 10.8370108784091030 Si
atom 5.4185055146828027 18.9647690370218314 13.5462635980191024 Si
atom 5.4185055146818026 21.6740217565988331 16.2555163176291018 Si
atom 5.4185055146808025 24.3832744761758349 18.9647690372391011 Si
atom 5.4185055146798033 27.0925271957528331 21.6740217568490969 Si
atom 5.4185055146788033 29.8017799153298384 24.3832744764591034 Si
atom 5.4185055148218018 0.0000000000068374 27.0925271960451042 Si
atom 5.4185055148208017 2.7092527195838350 29.8017799156551035 Si
atom 8.1277582720398005 5.4185054391268368 2.7092527195881062 Si
atom 8.1277582720388022 8.1277581587038359 5.4185054391981051 Si
atom 8.1277582720378021 10.8370108782808376 8.1277581588081045 Si
atom 8.1277582720368020 13.5462635978578358 10.8370108784181038 Si
atom 8.1277582720358019 16.2555163174348358 13.5462635980281032 Si
atom 8.1277582720348036 18.9647690370118340 16.2555163176381008 Si
atom 8.1277582720338017 21.6740217565888358 18.9647690372481001 Si
atom 8.1277582720328034 24.3832744761658340 21.6740217568580995 Si
atom 8.1277582720318033 27.0925271957428322 24.3832744764680953 Si
atom 8.1277582720308033 29.8017799153198375 27.0925271960780982 Si
atom 8.1277582721738018 -0.0000000000031623 29.8017799156641026 Si
atom 8.1277582721728034 2.7092527195738350 32.5110326352741055 Si
atom 10.8370110293917996 5.4185054391168368 5.4185054392071059 Si
atom 10.8370110293907995 8.1277581586938368 8.1277581588171053 Si
atom 10.8370110293898012 10.8370108782708368 10.8370108784271046 Si
atom 10.8370110293887993 13.5462635978478367 13.5462635980371040 Si
atom 10.8370110293878010 16.2555163174248349 16.2555163176471034 Si
atom 10.8370110293868009 18.9647690370018331 18.9647690372571027 Si
atom 10.8370110293858009 21.6740217565788349 21.6740217568670985 Si
atom 10.8370110293848008 24.3832744761558367 24.3832744764771014 Si
atom 10.8370110293838025 27.0925271957328349 27.0925271960870973 Si
atom 10.8370110293828006 29.8017799153098366 29.8017799156971002 Si
atom 10.8370110295258009 -0.0000000000131620 32.5110326352831009 Si
atom 10.8370110293927997 2.7092527195398337 2.7092527195971066 Si
atom 13.5462637867437987 5.4185054391068368 8.1277581588261043 Si
atom 13.5462637867428004 8.1277581586838359 10.8370108784361037 Si
atom 13.5462637867418003 10.8370108782608376 13.5462635980461048 Si
atom 13.5462637867408002 13.5462635978378376 16.2555163176561024 Si
atom 13.5462637867398001 16.2555163174148376 18.9647690372660982 Si
atom 13.5462637867388018 18.9647690369918323 21.6740217568761011 Si
atom 13.5462637867378000 21.6740217565688340 24.3832744764860969 Si
atom 13.5462637867368016 24.3832744761458358 27.0925271960960963 Si
atom 13.5462637867358016 27.0925271957228340 29.8017799157060956 Si
atom 13.5462637867348015 29.8017799152998393 32.5110326353160985 Si
atom 13.5462637867457989 -0.0000000000471636 2.7092527196061074 Si
atom 13.5462637867448006 2.7092527195298342 5.4185054392161041 Si
atom 16.2555165440958014 5.4185054390968377 10.8370108784451045 Si
atom 16.2555165440947995 8.1277581586738368 13.5462635980551038 Si
atom 16.2555165440937976 10.8370108782508385 16.2555163176651050 Si
atom 16.2555165440928029 13.5462635978278367 18.9647690372751043 Si
atom 16.2555165440918010 16.2555163174048367 21.6740217568851001 Si
atom 16.2555165440907992 18.9647690369818349 24.3832744764950995 Si
atom 16.2555165440898008 21.6740217565588367 27.0925271961050989 Si
atom 16.2555165440888025 24.3832744761358349 29.8017799157150982 Si
atom 16.2555165440878007 27.0925271957128331 32.5110326353250940 Si
atom 16.2555165439548013 29.8017799152658363 2.7092527196391032 Si
atom 16.2555165440977980 -0.0000000000571633 5.4185054392251049 Si
atom 16.2555165440967997 2.7092527195198342 8.1277581588351016 Si
atom 18.9647693014478023 5.4185054390868377 13.5462635980641064 Si
atom 18.9647693014468004 8.1277581586638377 16.2555163176741040 Si
atom 18.9647693014458021 10.8370108782408376 18.9647690372841069 Si
atom 18.9647693014448038 13.5462635978178376 21.6740217568941027 Si
atom 18.9647693014438019 16.2555163173948358 24.3832744765041021 Si
atom 18.9647693014428000 18.9647690369718340 27.0925271961141014 Si
atom 18.9647693014418053 21.6740217565488358 29.8017799157241008 Si
atom 18.9647693014408034 24.3832744761258375 32.5110326353341037 Si
atom 18.9647693013078005 27.0925271956788336 2.7092527196481040 Si
atom 18.9647693013068022 29.8017799152558354 5.4185054392581078 Si
atom 18.9647693014498024 -0.0000000000671630 8.1277581588441024 Si
atom 18.9647693014488006 2.7092527195098346 10.8370108784541070 Si
atom 21.6740220587998031 5.4185054390768377 16.2555163176831066 Si
atom 21.6740220587988048 8.1277581586538368 18.9647690372931059 Si
atom 21.6740220587978030 10.8370108782308385 21.6740217569031053 Si
atom 21.6740220587968047 13.5462635978078385 24.3832744765131082 Si
atom 21.6740220587958028 16.2555163173848385 27.0925271961231040 Si
atom 21.6740220587948045 18.9647690369618331 29.8017799157330998 Si
atom 21.6740220587938062 21.6740217565388349 32.5110326353430992 Si
atom 21.6740220586608032 24.3832744760918345 2.7092527196571048 Si
atom 21.6740220586598014 27.0925271956688327 5.4185054392671015 Si
atom 21.6740220586588066 29.8017799152458380 8.1277581588771053 Si
atom 21.6740220588018033 -0.0000000000771627 10.8370108784631078 Si
atom 21.6740220588008015 2.7092527194998350 13.5462635980731125 Si
atom 24.3832748161518005 5.4185054390668386 18.9647690373021085 Si
atom 24.3832748161507986 8.1277581586438377 21.6740217569121043 Si
atom 24.3832748161497967 10.8370108782208394 24.3832744765221037 Si
atom 24.3832748161487984 13.5462635977978376 27.0925271961321066 Si
atom 24.3832748161478001 16.2555163173748376 29.8017799157421024 Si
atom 24.3832748161467983 18.9647690369518358 32.5110326353521017 Si
atom 24.3832748160137989 21.6740217565048354 2.7092527196661056 Si
atom 24.3832748160127970 24.3832744760818372 5.4185054392761023 Si
atom 24.3832748160117987 27.0925271956588318 8.1277581588860990 Si
atom 24.3832748160108004 29.8017799152358371 10.8370108784961037 Si
atom 24.3832748161537971 -0.0000000000871624 13.5462635980821062 Si
atom 24.3832748161527952 2.7092527194898355 16.2555163176921091 Si
atom 27.0925275735038014 5.4185054390568386 21.6740217569211069 Si
atom 27.0925275735027995 8.1277581586338385 24.3832744765311098 Si
atom 27.0925275735017976 10.8370108782108385 27.0925271961411056 Si
atom 27.0925275735008029 13.5462635977878385 29.8017799157511050 Si
atom 27.0925275734998010 16.2555163173648367 32.5110326353611043 Si
atom 27.0925275733667981 18.9647690369178328 2.7092527196751064 Si
atom 27.0925275733657998 21.6740217564948345 5.4185054392851031 Si
atom 27.0925275733648014 24.3832744760718363 8.1277581588951069 Si
atom 27.0925275733637996 27.0925271956488345 10.8370108785051045 Si
atom 27.0925275733628013 29.8017799152258398 13.5462635981151092 Si
atom 27.0925275735057980 -0.0000000000971621 16.2555163177011117 Si
atom 27.0925275735047997 2.7092527194798355 18.9647690373111075 Si
atom 29.8017803308557987 5.4185054390468386 24.3832744765401017 Si
atom 29.8017803308547968 8.1277581586238377 27.0925271961501046 Si
atom 29.8017803308537985 10.8370108782008394 29.8017799157601040 Si
atom 29.8017803308528002 13.5462635977778394 32.5110326353700998 Si
atom 29.8017803307197973 16.2555163173308372 2.7092527196841001 Si
atom 29.8017803307187954 18.9647690369078354 5.4185054392941039 Si
atom 29.8017803307178006 21.6740217564848336 8.1277581589041006 Si
atom 29.8017803307167988 24.3832744760618354 10.8370108785140982 Si
atom 29.8017803307157969 27.0925271956388336 13.5462635981240958 Si
atom 29.8017803307147986 29.8017799152158389 16.2555163177340987 Si
atom 29.8017803308577989 -0.0000000001071618 18.9647690373201030 Si
atom 29.8017803308567970 2.7092527194698359 21.6740217569301059 Si
atom 0.0000000001157933 5.4185054391808372 27.0925271960270990 Si
atom 0.0000000001147935 8.1277581587578371 29.8017799156370948 Si
atom 0.0000000001137938 10.8370108783348389 32.5110326352470977 Si
atom -0.0000000000192068 13.5462635978878350 2.7092527195610958 Si
atom -0.0000000000202066 16.2555163174648349 5.4185054391710930 Si
atom -0.0000000000212064 18.9647690370418331 8.1277581587810968 Si
atom -0.0000000000222062 21.6740217566188349 10.8370108783910943 Si
atom -0.0000000000232060 24.3832744761958331 13.5462635980010901 Si
atom -0.0000000000242058 27.0925271957728313 16.2555163176110966 Si
atom -0.0000000000252056 29.8017799153498366 18.9647690372210995 Si
atom 0.0000000001177929 0.0000000000268368 21.6740217568070932 Si
atom 0.0000000001167931 2.7092527196038345 24.3832744764170997 Si
atom 2.7092527574677976 5.4185054391708380 29.8017799156461010 Si
atom 2.7092527574667979 8.1277581587478380 32.5110326352561003 Si
atom 2.7092527573337977 10.8370108783008359 2.7092527195701042 Si
atom 2.7092527573327980 13.5462635978778358 5.4185054391801009 Si
atom 2.7092527573317979 16.2555163174548341 8.1277581587900976 Si
atom 2.7092527573307983 18.9647690370318323 10.8370108784000951 Si
atom 2.7092527573297986 21.6740217566088340 13.5462635980100909 Si
atom 2.7092527573287986 24.3832744761858358 16.2555163176200956 Si
atom 2.7092527573277989 27.0925271957628340 18.9647690372300914 Si
atom 2.7092527573267993 29.8017799153398357 21.6740217568400979 Si
atom 2.7092527574697978 0.0000000000168371 24.3832744764260987 Si
atom 2.7092527574687977 2.7092527195938345 27.0925271960361016 Si
atom 8.1277582721488013 8.1277581587238377 32.5110326352780987 Si
atom 8.1277582720158001 10.8370108782768355 2.7092527195921048 Si
atom 8.1277582720148001 13.5462635978538355 5.4185054392021046 Si
atom 8.1277582720138000 16.2555163174308355 8.1277581588121031 Si
atom 8.1277582720128017 18.9647690370078337 10.8370108784221024 Si
atom 8.1277582720117998 21.6740217565848354 13.5462635980321018 Si
atom 8.1277582720108015 24.3832744761618301 16.2555163176421011 Si