#=======================================================
# FHI-aims file: geometry.in
# Created using the Atomic Simulation Environment (ASE)
# Tue Jun 10 15:09:54 2025
#=======================================================
lattice_vector 5.4088325884509993 0.0000000000639995 0.0000000001369997 
lattice_vector 0.0000000000629998 5.4088325742939993 0.0000000001030003 
lattice_vector 0.0000000001370002 0.0000000001020002 5.4088325742309999 
atom 0.0134345500038077 -0.0234289881763336 0.0947042629653817 Si
atom 0.0105585727530217 2.8247721160089880 2.6912885154574604 Si
atom 2.6654268314166680 0.0328487843060158 2.7328357005852979 Si
atom 2.6799244790440269 2.5892903317829528 -0.2165760391457471 Si
atom 1.4094473753891275 1.4382078263949647 1.4161083443514089 Si
atom 1.3268389989870586 4.1762592464467083 4.1177373730724138 Si
atom 4.1766969204481521 1.2741656068490650 4.0331155220640262 Si
atom 3.9441700378111584 3.9143827997350091 1.3572840440707845 Si
