#=======================================================
# FHI-aims file: geometry.in.supercell.0300K.004
# Created using the Atomic Simulation Environment (ASE)
# Tue Jun 10 08:24:58 2025

# Additional information:
#  created from force constants
#  T = 300.0 K
#  quantum:             False
#  deterministic:       False
#  plus_minus:          False
#  gauge_eigenvectors:  False
#  Random seed:         1162909511
#  Sample number:       5
#  Harmonic E_pot:        0.390eV (377.08K)
#=======================================================
lattice_vector 5.4088325884509993 0.0000000000639995 0.0000000001369997 
lattice_vector 0.0000000000629998 5.4088325742939993 0.0000000001030003 
lattice_vector 0.0000000001370002 0.0000000001020002 5.4088325742309999 
atom 0.1103565310563197 -0.0345994039589491 0.1161015617794842 Si
    velocity 2.8029465067188970 3.8714619675051067 -6.2733464949389406
atom -0.0757000661196610 2.6979429760732132 2.6590124005414255 Si
    velocity 3.3248216729870235 3.6249934517575033 0.4897509854561866
atom 2.7170662891619672 0.0773421125411320 2.7002142979433792 Si
    velocity -2.4143462491285437 -0.0186218202053184 2.8919286243653795
atom 2.7067677493010547 2.6719797595855392 -0.0498399518256055 Si
    velocity -3.4425142474876718 -3.1005764287978730 -1.9228159949095087
atom 1.3309890277789023 1.3456416456601308 1.3371997489760390 Si
    velocity -4.0894794542037385 -3.5317892768214163 -3.1707209688181663
atom 1.3663966822925542 4.0456646760023789 4.0705564911029706 Si
    velocity 0.9577037225896310 2.9936903357192399 1.5570418861688480
atom 3.9997056542692828 1.3297807526084477 4.0620245631261991 Si
    velocity 1.1297704231995700 -0.7200591063631910 3.6771672675141049
atom 4.0709158983420668 4.0927452048579678 1.3312286117684617 Si
    velocity 1.7310976253248325 -3.1190991227940512 2.7509946951620949
