#=======================================================
# FHI-aims file: geometry.in.supercell.0300K.007
# Created using the Atomic Simulation Environment (ASE)
# Tue Jun 10 08:24:58 2025

# Additional information:
#  created from force constants
#  T = 300.0 K
#  quantum:             False
#  deterministic:       False
#  plus_minus:          False
#  gauge_eigenvectors:  False
#  Random seed:         1162909511
#  Sample number:       8
#  Harmonic E_pot:        0.230eV (222.13K)
#=======================================================
lattice_vector 5.4088325884509993 0.0000000000639995 0.0000000001369997 
lattice_vector 0.0000000000629998 5.4088325742939993 0.0000000001030003 
lattice_vector 0.0000000001370002 0.0000000001020002 5.4088325742309999 
atom -0.0006045796945160 -0.0193246110835078 0.0307384962490129 Si
    velocity -0.7580370217081844 0.2026945423181200 2.3559109791471320
atom -0.0970064613398499 2.7958735116746798 2.7469481955065422 Si
    velocity 1.7806113247154853 1.1040701948148823 5.7726891358027324
atom 2.7961042205409470 0.0421923982840476 2.6270155405232236 Si
    velocity -0.6388133499302985 0.2306952148189976 2.1510593725792124
atom 2.6993184161800361 2.6387326780075919 -0.0144260634359940 Si
    velocity -1.8154296380389126 3.2849766522566362 -2.1296277380448325
atom 1.3361828773414559 1.3825819990535226 1.4356013578310087 Si
    velocity 2.5935352457125975 -6.3251331479699653 -8.2324649271408674
atom 1.3930180501726432 4.1212377902425912 4.0675718746444023 Si
    velocity -1.3248464147314827 0.3640254562795494 -2.4207621601760922
atom 4.1094400734088277 1.3092581594089545 4.0313440073192499 Si
    velocity -3.0236222134153632 0.6332319663394764 1.5848248056605569
atom 3.9900451693083849 3.9559457976617631 1.3017043147685359 Si
    velocity 3.1866020673961586 0.5054391211423034 0.9183705321721573
