#=======================================================
# FHI-aims file: geometry.in.supercell.0300K.003
# Created using the Atomic Simulation Environment (ASE)
# Tue Jun 10 08:24:58 2025

# Additional information:
#  created from force constants
#  T = 300.0 K
#  quantum:             False
#  deterministic:       False
#  plus_minus:          False
#  gauge_eigenvectors:  False
#  Random seed:         1162909511
#  Sample number:       4
#  Harmonic E_pot:        0.200eV (193.30K)
#=======================================================
lattice_vector 5.4088325884509993 0.0000000000639995 0.0000000001369997 
lattice_vector 0.0000000000629998 5.4088325742939993 0.0000000001030003 
lattice_vector 0.0000000001370002 0.0000000001020002 5.4088325742309999 
atom -0.0976476095520250 -0.0551066708759426 -0.0813596692947565 Si
    velocity -1.1850022769539579 -1.4907919844900319 -0.4327317774831978
atom 0.1099948323600718 2.8026312164570824 2.7146370660773549 Si
    velocity 0.0687094252776516 3.1986364918315142 -1.9287658554597373
atom 2.7898805961817370 0.0318165566982667 2.7265661100240286 Si
    velocity 3.6266958129739599 -1.2473982165267523 1.7228166745594915
atom 2.6226198321678384 2.5982959647586981 0.0399961891585473 Si
    velocity 1.5295376612663067 -1.0046172102841260 -8.0717320794376590
atom 1.2452826378883630 1.2300391738289762 1.3862644379830995 Si
    velocity 0.5440948010324657 -0.2659955483299606 -1.1770507772664611
atom 1.4108223403835769 4.1049078774009038 4.1288747856923207 Si
    velocity -2.2438929937469876 2.2299269994934217 1.3810052067332461
atom 4.1535479769218950 1.4690341001336744 4.0039648366993834 Si
    velocity -1.7706663282596089 -0.7661982661761141 -0.9852765974441230
atom 3.9919971596460511 4.0448795050604227 1.3075539670743253 Si
    velocity -0.5694761015898302 -0.6535622655179507 9.4917352057984399
