#=======================================================
# FHI-aims file: geometry.in.supercell.0300K.006
# Created using the Atomic Simulation Environment (ASE)
# Tue Jun 10 08:24:58 2025

# Additional information:
#  created from force constants
#  T = 300.0 K
#  quantum:             False
#  deterministic:       False
#  plus_minus:          False
#  gauge_eigenvectors:  False
#  Random seed:         1162909511
#  Sample number:       7
#  Harmonic E_pot:        0.283eV (273.37K)
#=======================================================
lattice_vector 5.4088325884509993 0.0000000000639995 0.0000000001369997 
lattice_vector 0.0000000000629998 5.4088325742939993 0.0000000001030003 
lattice_vector 0.0000000001370002 0.0000000001020002 5.4088325742309999 
atom -0.0914857018000238 0.1592197119295998 -0.0087677224392990 Si
    velocity -3.6154513263230306 3.0127872296082709 -1.7520534816657554
atom 0.0730616453270952 2.7195141780025178 2.6572229711451860 Si
    velocity -1.0398018525695227 2.2664753914766509 -4.5958484624471971
atom 2.6735675925145910 -0.1407109734644638 2.7581750226674075 Si
    velocity -5.2311829353840986 -3.4222242772806206 -0.7475645812601743
atom 2.7625264733171151 2.6333914372157357 -0.0229702543361123 Si
    velocity 4.9025235308439692 -0.5541909603840651 4.9574994332805451
atom 1.3499892673437499 1.2851306431104228 1.3780961106760234 Si
    velocity -0.0784576857290931 -2.2084804442590085 0.7575889217303660
atom 1.3758180418114931 4.0480394687640242 4.2126090670502618 Si
    velocity -1.6446211912384867 -0.6807184681587516 -3.1695729523829135
atom 4.0313161440959870 1.4033313272611079 3.9002564107903290 Si
    velocity 2.9387260495915686 -0.8728499925022078 -0.3108115726867081
atom 4.0517043033792293 4.1185819306641287 1.3518761178699199 Si
    velocity 3.7682654108086919 2.4592015214997320 4.8607626954318377
