#=======================================================
# FHI-aims file: geometry.in.supercell.0300K.002
# Created using the Atomic Simulation Environment (ASE)
# Tue Jun 10 08:24:58 2025

# Additional information:
#  created from force constants
#  T = 300.0 K
#  quantum:             False
#  deterministic:       False
#  plus_minus:          False
#  gauge_eigenvectors:  False
#  Random seed:         1162909511
#  Sample number:       3
#  Harmonic E_pot:        0.168eV (162.36K)
#=======================================================
lattice_vector 5.4088325884509993 0.0000000000639995 0.0000000001369997 
lattice_vector 0.0000000000629998 5.4088325742939993 0.0000000001030003 
lattice_vector 0.0000000001370002 0.0000000001020002 5.4088325742309999 
atom 0.0340541495572271 0.0303513597148151 0.0921482431244503 Si
    velocity 2.2661050443670145 -0.3495452338483300 4.7384435460251577
atom -0.0682503334058674 2.7705878903330330 2.6971330500365607 Si
    velocity 0.7020653127014819 2.9286878644999881 -2.7514373253849094
atom 2.6963658625834324 -0.0008910443709828 2.7196113769133663 Si
    velocity -1.4239440338325076 2.9467991899578485 5.5850621692649201
atom 2.7222381649896605 2.6381694800295583 -0.0928646069218813 Si
    velocity -4.0014940636467369 -2.4936575949969613 -4.9990106611538350
atom 1.3908778139252169 1.4478752871905005 1.4449493206762849 Si
    velocity 2.3749196516697166 -4.2229318593000293 -2.3744421593189675
atom 1.2742598317845675 4.0883829441822845 4.0421195015339624 Si
    velocity -3.6176000422080365 1.8667920956666879 1.3837736274506123
atom 4.1414767426543158 1.2310265832601390 4.0286028397614642 Si
    velocity 3.2942832121410164 2.6731077031546313 0.0596907649933883
atom 4.0354755338040142 4.0209952229650847 1.2947979982897051 Si
    velocity 0.4056649188080516 -3.3492521651338345 -1.6420799618763662
