#=======================================================
# FHI-aims file: geometry.in.supercell.0300K.005
# Created using the Atomic Simulation Environment (ASE)
# Tue Jun 10 08:24:58 2025

# Additional information:
#  created from force constants
#  T = 300.0 K
#  quantum:             False
#  deterministic:       False
#  plus_minus:          False
#  gauge_eigenvectors:  False
#  Random seed:         1162909511
#  Sample number:       6
#  Harmonic E_pot:        0.193eV (186.34K)
#=======================================================
lattice_vector 5.4088325884509993 0.0000000000639995 0.0000000001369997 
lattice_vector 0.0000000000629998 5.4088325742939993 0.0000000001030003 
lattice_vector 0.0000000001370002 0.0000000001020002 5.4088325742309999 
atom 0.0075956725582401 0.0094317106398506 -0.0244186670478839 Si
    velocity -4.1298654584739918 -1.6734346538929368 -5.6352482229116507
atom -0.0144077786501628 2.7339689182011240 2.6227887760662982 Si
    velocity -2.2002497635689542 1.1954860541033214 -2.5743963577748645
atom 2.6886453719476595 0.0308084669198234 2.7960914005872763 Si
    velocity 3.4189224992721439 -2.9070404845475708 1.0932828539911272
atom 2.7369772199480544 2.6835932687695321 -0.0207548115825839 Si
    velocity -1.0260286292960232 3.8022187750331842 3.7153892115689886
atom 1.3422549006253439 1.2519022168043490 1.3921879694364925 Si
    velocity 4.8349627169588860 -3.2863408898965893 2.7183476109416222
atom 1.3537354005407338 3.9591655754764141 4.0906520688095709 Si
    velocity 0.6397446352668997 -2.0099648349700794 3.0196564790942637
atom 4.1462559748591561 1.3791119319438507 4.0101817284354517 Si
    velocity -4.1322168865013138 1.7433939608263767 -2.4818940707013013
atom 3.9654410041625998 4.1785156345007408 1.3597692587143022 Si
    velocity 2.5947308863423548 3.1356820733442934 0.1448624957918150
