#=======================================================
# FHI-aims file: geometry.in.supercell.0300K.001
# Created using the Atomic Simulation Environment (ASE)
# Tue Jun 10 08:24:58 2025

# Additional information:
#  created from force constants
#  T = 300.0 K
#  quantum:             False
#  deterministic:       False
#  plus_minus:          False
#  gauge_eigenvectors:  False
#  Random seed:         1162909511
#  Sample number:       2
#  Harmonic E_pot:        0.195eV (188.38K)
#=======================================================
lattice_vector 5.4088325884509993 0.0000000000639995 0.0000000001369997 
lattice_vector 0.0000000000629998 5.4088325742939993 0.0000000001030003 
lattice_vector 0.0000000001370002 0.0000000001020002 5.4088325742309999 
atom 0.0772382986375193 0.0279810728907673 0.0825221250848949 Si
    velocity 3.3810023076645557 1.5002080107273266 -0.1506669635361901
atom -0.0716211360925983 2.6117902520648699 2.6549716796193179 Si
    velocity 1.6708161127714094 -1.4255820094345664 -1.3843830513696591
atom 2.6807015216321806 0.0356044993934867 2.7464920706284444 Si
    velocity -7.2754207869881125 3.7788528164567641 -1.9726058230375758
atom 2.7436579405193364 2.7906836701739390 -0.0781928794250227 Si
    velocity -4.7478830241121255 -2.9938411815134915 0.1524518723956925
atom 1.4565182374581225 1.4501455877994947 1.3274805814462354 Si
    velocity -3.0769012003333724 -2.0683702163739444 2.3523479111765426
atom 1.2829340850563813 3.9659073852055950 3.9784248386342309 Si
    velocity 3.2357833947107046 -0.3867579996525495 3.6706114909616763
atom 4.0578159409401673 1.2523179192139404 4.0939151075665832 Si
    velocity 3.0297906969702257 -1.1041739275478657 -3.6949785338655703
atom 3.9992528778624021 4.0920673364915370 1.4208841998630419 Si
    velocity 3.7828124993167145 2.6996645073383263 1.0272230972750835
