#=======================================================
# FHI-aims file: geometry.in.supercell.0300K.009
# Created using the Atomic Simulation Environment (ASE)
# Tue Jun 10 08:24:58 2025

# Additional information:
#  created from force constants
#  T = 300.0 K
#  quantum:             False
#  deterministic:       False
#  plus_minus:          False
#  gauge_eigenvectors:  False
#  Random seed:         1162909511
#  Sample number:       10
#  Harmonic E_pot:        0.203eV (196.07K)
#=======================================================
lattice_vector 5.4088325884509993 0.0000000000639995 0.0000000001369997 
lattice_vector 0.0000000000629998 5.4088325742939993 0.0000000001030003 
lattice_vector 0.0000000001370002 0.0000000001020002 5.4088325742309999 
atom 0.1392221715928445 0.0133153342869797 0.0275921506500236 Si
    velocity 1.8954431461844352 -1.1443217379514614 -0.7562320976628933
atom -0.1315320698203226 2.6632010130291630 2.6960716849232358 Si
    velocity -4.8295204885644569 1.1462413186348754 -0.6639641252351118
atom 2.6667444113255954 -0.0014078996022864 2.6322968219598799 Si
    velocity -0.3486290602478653 3.8868597154264672 -0.7857857447038725
atom 2.7344368811793851 2.6817336619774133 0.0159059469610050 Si
    velocity -4.4956603330839364 -3.7978554455355615 -4.4440452005419351
atom 1.3872591824805245 1.4822411662321358 1.4503348568337384 Si
    velocity 1.4355676848955317 0.7103747462441334 1.5988404386196755
atom 1.3313323485145074 4.0372616669824275 3.9860903257221283 Si
    velocity 6.9056703449754453 1.0151259857956962 4.4684030639508308
atom 4.0492515586288791 1.2511002245987068 4.1162529223207729 Si
    velocity 3.2437076505974152 1.4229504096463297 0.9480433375921676
atom 4.0497832820402166 4.0990525560078801 1.3019530140341182 Si
    velocity -3.8065789447565694 -3.2393749922604793 -0.3652596720188608
