#=======================================================
# FHI-aims file: geometry.in.supercell.0300K.008
# Created using the Atomic Simulation Environment (ASE)
# Tue Jun 10 08:24:58 2025

# Additional information:
#  created from force constants
#  T = 300.0 K
#  quantum:             False
#  deterministic:       False
#  plus_minus:          False
#  gauge_eigenvectors:  False
#  Random seed:         1162909511
#  Sample number:       9
#  Harmonic E_pot:        0.258eV (249.07K)
#=======================================================
lattice_vector 5.4088325884509993 0.0000000000639995 0.0000000001369997 
lattice_vector 0.0000000000629998 5.4088325742939993 0.0000000001030003 
lattice_vector 0.0000000001370002 0.0000000001020002 5.4088325742309999 
atom -0.0040103291185975 -0.0125766381371608 0.0741193407450512 Si
    velocity -0.4720342492150769 -3.7568448340496969 -0.2219431405861495
atom 0.0186762683217596 2.7308567905775774 2.7569064766532554 Si
    velocity -0.8100536766219024 0.8254526408229613 -1.4349105817424037
atom 2.7330870629176056 0.0601524675620244 2.6872538548739211 Si
    velocity -5.6930531740753798 -0.2111703957295299 1.2284958744287720
atom 2.6671084203139737 2.7141606446709408 -0.1169880815216217 Si
    velocity 0.6160572536454253 3.1540482824130058 -1.0789610480901468
atom 1.3915156950015140 1.4375008575142876 1.3363405928962877 Si
    velocity 3.7503090029742374 -3.0699241403767550 7.0237439484677697
atom 1.3353092618777598 4.0335072631609306 3.9910945199505452 Si
    velocity 5.7685157530025446 1.1154682100567213 -3.9700813960552011
atom 4.1270660865780995 1.2847895116877293 4.0764958873085249 Si
    velocity -0.8296853593174978 -0.6030549918158644 -3.2882879734795063
atom 3.9577453000776281 3.9781068261271462 1.4212751325106430 Si
    velocity -2.3300555503923501 2.5460252286791585 1.7419443170568660
