#=======================================================
# FHI-aims file: geometry.in.supercell.0300K.000
# Created using the Atomic Simulation Environment (ASE)
# Tue Jun 10 08:24:58 2025

# Additional information:
#  created from force constants
#  T = 300.0 K
#  quantum:             False
#  deterministic:       False
#  plus_minus:          False
#  gauge_eigenvectors:  False
#  Random seed:         1162909511
#  Sample number:       1
#  Harmonic E_pot:        0.284eV (274.42K)
#=======================================================
lattice_vector 5.4088325884509993 0.0000000000639995 0.0000000001369997 
lattice_vector 0.0000000000629998 5.4088325742939993 0.0000000001030003 
lattice_vector 0.0000000001370002 0.0000000001020002 5.4088325742309999 
atom -0.0439619743737467 -0.0778841609078608 -0.0786027712506823 Si
    velocity 0.3845253073265680 1.7638195963992307 -2.5488011654258078
atom 0.0939691825058697 2.5900800878722339 2.6833123370074548 Si
    velocity -1.1116873482298590 2.5229462915360212 -2.8023940009619133
atom 2.7698576171176517 0.0160606380179055 2.7975465907852084 Si
    velocity 0.5047705486848496 -1.4542415299003006 0.8463814198333411
atom 2.6003860164858179 2.8775281219912467 0.0554098790661529 Si
    velocity 6.5723471792893751 2.0154064759726311 -1.6159740540705196
atom 1.3670869674745652 1.2242221709542263 1.2460630524569778 Si
    velocity 0.3773237465051299 3.8809453514429397 0.5749816780015691
atom 1.3325416993841825 4.0579709138645850 3.9755516418968657 Si
    velocity -6.9436879050604468 1.2225111961164048 0.3959760606074069
atom 4.0178388173085935 1.4948414775900467 4.0772275632944623 Si
    velocity 0.4290179682652046 -6.4575164142265198 1.5281559170069297
atom 4.0887794400835045 4.0436784740058691 1.4699894301580394 Si
    velocity -0.2126094967808208 -3.4938709673404076 3.6216741450089942
