#=======================================================
# FHI-aims file: geometry.in
# Created using the Atomic Simulation Environment (ASE)
# Tue Jun 10 14:29:18 2025
#=======================================================
lattice_vector 5.4088325884509993 0.0000000000639995 0.0000000001369997 
lattice_vector 0.0000000000629998 5.4088325742939993 0.0000000001030003 
lattice_vector 0.0000000001370002 0.0000000001020002 5.4088325742309999 
atom -0.0206291410514654 0.0426369694195578 0.0328261099258666 Si
atom -0.0105645782938844 2.7242264231585098 2.7524076635519648 Si
atom 2.7214502569751966 0.0229004788812354 2.6512933210347551 Si
atom 2.7153581434621037 2.6915552370321345 -0.0238000428245634 Si
atom 1.3324563456744614 1.3581105166972345 1.3637617620368099 Si
atom 1.3520847472894888 4.1221137970583390 4.0194880544637153 Si
atom 4.1100464456157004 1.2576118407779191 4.0501742036406538 Si
atom 4.0262955462715260 4.0073424601653773 1.3803466515833098 Si
