#=======================================================
# FHI-aims file: geometry.in
# Created using the Atomic Simulation Environment (ASE)
# Tue Jun 10 14:40:58 2025
#=======================================================
lattice_vector 5.4088325884509993 0.0000000000639995 0.0000000001369997 
lattice_vector 0.0000000000629998 5.4088325742939993 0.0000000001030003 
lattice_vector 0.0000000001370002 0.0000000001020002 5.4088325742309999 
atom 0.0155953482611892 -0.0001762471427243 0.0153955314227038 Si
atom -0.0269297459880805 2.6212896892738806 2.7272360530526623 Si
atom 2.7133397800037251 -0.0423850197352229 2.6757317968078334 Si
atom 2.7355397482525809 2.8055747309235084 -0.0223126925891748 Si
atom 1.4219871360402072 1.4968348852543429 1.3055592224801960 Si
atom 1.2783945640503025 4.0657033259640984 4.0475112406080402 Si
atom 4.0152728607277739 1.3148591586196481 4.0400750472960159 Si
atom 4.0732980746772656 3.9647972002888445 1.4373015243388652 Si
