#=======================================================
# FHI-aims file: ./geometry.in
# Created using the Atomic Simulation Environment (ASE)
# Tue Jun 10 14:52:21 2025
#=======================================================
lattice_vector 5.4088325884509993 0.0000000000639995 0.0000000001369997 
lattice_vector 0.0000000000629998 5.4088325742939993 0.0000000001030003 
lattice_vector 0.0000000001370002 0.0000000001020002 5.4088325742309999 
atom_frac 0.0056753327737647 -0.0142134638188941 0.0079617001559308 Si
atom_frac -0.0128717277955442 0.4797403115542343 0.4859117579751711 Si
atom_frac 0.4827906355468847 0.0155160307808575 0.5200895828140023 Si
atom_frac 0.5227618147804911 0.5015886635613654 -0.0077756258727170 Si
atom_frac 0.2466845085464607 0.2630879290667434 0.2385690154933758 Si
atom_frac 0.2683471343301504 0.7390903628144132 0.7502608137279037 Si
atom_frac 0.7662811727551131 0.2412234518389439 0.7465757775461005 Si
atom_frac 0.7203311290603065 0.7739667142486201 0.2584069781619160 Si
