#=====================================================
# libflo:  geometry.in 
#   Date:    2018-07-20 10:57:09
#=====================================================
#   Material:          Si2
#   No. atoms:         2
#   Unit cell volume:  39.938853 AA^3
  lattice_vector  0.00000000000000e+00  2.71303376291000e+00  2.71303376291000e+00
  lattice_vector  2.71303376291000e+00  0.00000000000000e+00  2.71303376291000e+00
  lattice_vector  2.71303376291000e+00  2.71303376291000e+00  0.00000000000000e+00
  atom_frac   0.00000000000000e+00  0.00000000000000e+00  0.00000000000000e+00  Si 
  atom_frac   2.50000000000000e-01  2.50000000000000e-01  2.50000000000000e-01  Si 
