#=======================================================
# FHI-aims file: geometry.in.supercell.0800K.020
# Created using the Atomic Simulation Environment (ASE)
# Tue Jun 10 14:20:55 2025

# Additional information:
#  created from force constants
#  T = 800.0 K
#  quantum:             True
#  deterministic:       False
#  plus_minus:          False
#  gauge_eigenvectors:  False
#  Random seed:         68153105
#  Sample number:       21
#  Harmonic E_pot:        0.935eV (904.58K)
#=======================================================
lattice_vector 5.4088325884509993 0.0000000000639995 0.0000000001369997 
lattice_vector 0.0000000000629998 5.4088325742939993 0.0000000001030003 
lattice_vector 0.0000000001370002 0.0000000001020002 5.4088325742309999 
atom -0.0896298774652062 -0.0991121418822046 0.0718944395527239 Si
    velocity 4.0685791616883877 6.4026152859848491 -1.9501914111901140
atom 0.0374936318788483 2.8980808081753264 2.5477872731400679 Si
    velocity -3.0159116881768329 -5.6895742135933345 -2.5999509990567620
atom 2.6626342995398384 0.1075091520311006 2.7987011980219281 Si
    velocity 3.5496845178541272 -8.7257675677808919 3.1459431737064572
atom 2.7826842558842628 2.6743827169623495 -0.0225501036938999 Si
    velocity -2.8344041791895820 -5.5546313593992007 6.2855023671418486
atom 1.2363009771533031 1.2009668753028164 1.3534166519235733 Si
    velocity 7.1300775107949121 3.4982432462734954 2.2521319060407960
atom 1.3068088455185465 4.0904415743202165 4.0835360666457028 Si
    velocity -7.3143712782402881 6.0213041969328751 -7.7408786665839679
atom 4.3735045292674108 1.3467480000195626 4.0455554837097152 Si
    velocity 3.4635058809906085 -0.9162111059125763 0.9518862951631839
atom 3.9167011041577853 4.0074807380093427 1.3481567141272874 Si
    velocity -5.0471599257213322 4.9640215174947864 -0.3444426652214410
