#=======================================================
# FHI-aims file: geometry.in.supercell.0800K.019
# Created using the Atomic Simulation Environment (ASE)
# Tue Jun 10 14:20:55 2025

# Additional information:
#  created from force constants
#  T = 800.0 K
#  quantum:             True
#  deterministic:       False
#  plus_minus:          False
#  gauge_eigenvectors:  False
#  Random seed:         68153105
#  Sample number:       20
#  Harmonic E_pot:        1.023eV (989.37K)
#=======================================================
lattice_vector 5.4088325884509993 0.0000000000639995 0.0000000001369997 
lattice_vector 0.0000000000629998 5.4088325742939993 0.0000000001030003 
lattice_vector 0.0000000001370002 0.0000000001020002 5.4088325742309999 
atom 0.0248319633258623 -0.1368773499898858 0.0716795135466203 Si
    velocity 3.1169040259008920 -4.8897521686752761 7.7692810817107079
atom 0.0665352644256839 2.9151330183351076 2.6776768846930472 Si
    velocity -6.7801037758209901 0.2103367651221327 -2.1392034921909153
atom 2.7574193376890737 -0.0170810213457648 2.6299304431870629 Si
    velocity -0.8155996294997006 -1.3094570844468141 0.8903530781252923
atom 2.5850309037351238 2.4634825693488587 -0.0320040156233533 Si
    velocity -6.4547538753037097 -1.6551054704644372 0.5884534667701037
atom 1.1776753037917220 1.5132467559583160 1.4265541070265808 Si
    velocity 9.9767733047000373 9.2700909709215331 -8.6221814512067674
atom 1.4897406661070305 4.2163689945568272 4.0684056687376460 Si
    velocity -4.6945122899188112 2.5408124785674087 0.0545534269747455
atom 4.1154839641126193 1.2649801863190777 4.1118804941180258 Si
    velocity 0.1181473546121300 2.1776145091930514 -1.6063778062134240
atom 4.0097803628138928 4.0072445706767317 1.2723746277222543 Si
    velocity 5.5331448853301533 -6.3445400002175996 3.0651216960302570
