#=======================================================
# FHI-aims file: geometry.in.supercell.0800K.005
# Created using the Atomic Simulation Environment (ASE)
# Tue Jun 10 14:20:55 2025

# Additional information:
#  created from force constants
#  T = 800.0 K
#  quantum:             True
#  deterministic:       False
#  plus_minus:          False
#  gauge_eigenvectors:  False
#  Random seed:         68153105
#  Sample number:       6
#  Harmonic E_pot:        0.533eV (515.11K)
#=======================================================
lattice_vector 5.4088325884509993 0.0000000000639995 0.0000000001369997 
lattice_vector 0.0000000000629998 5.4088325742939993 0.0000000001030003 
lattice_vector 0.0000000001370002 0.0000000001020002 5.4088325742309999 
atom 0.0950630999993292 0.0446497611920213 -0.1677613800366715 Si
    velocity -3.2687433961243366 1.7657620299412418 2.5239789280737321
atom 0.0203241327463359 2.7073072416113968 2.6852504594349145 Si
    velocity -0.7066246711398018 6.9839373378928666 1.9927099691685541
atom 2.8116700232794538 -0.0340628074450616 2.6480916027387655 Si
    velocity 5.5227940782494755 -1.1391692448201689 -3.8326281497669918
atom 2.5908861473400142 2.7181126666571553 0.1228118642193440 Si
    velocity 7.5213718920645087 1.8847852589923775 5.3357158001172387
atom 1.3012493951497608 1.3244413347279735 1.5287528982229632 Si
    velocity -10.1132308401922675 -4.6230721566863817 -2.4755667617442971
atom 1.3587897823223674 4.0576807329948243 3.9918654920728120 Si
    velocity 5.0534526375595643 3.5910680384775167 -5.4017624379523435
atom 3.9688235647160290 1.3469392262346862 4.1908890935433289 Si
    velocity -1.2495009074641557 -10.6886431986886770 4.9547787503191252
atom 4.0796916206646401 4.0614295673288412 1.2265976932020473 Si
    velocity -2.7595187929529890 2.2253319348912264 -3.0972260982150188
