#=======================================================
# FHI-aims file: geometry.in.supercell.0800K.024
# Created using the Atomic Simulation Environment (ASE)
# Tue Jun 10 14:20:55 2025

# Additional information:
#  created from force constants
#  T = 800.0 K
#  quantum:             True
#  deterministic:       False
#  plus_minus:          False
#  gauge_eigenvectors:  False
#  Random seed:         68153105
#  Sample number:       25
#  Harmonic E_pot:        1.162eV (1123.74K)
#=======================================================
lattice_vector 5.4088325884509993 0.0000000000639995 0.0000000001369997 
lattice_vector 0.0000000000629998 5.4088325742939993 0.0000000001030003 
lattice_vector 0.0000000001370002 0.0000000001020002 5.4088325742309999 
atom -0.0136662067462275 0.0645108830773446 0.2022338495875536 Si
    velocity 2.3295065923403255 -4.8596306672040575 3.1694184462959156
atom -0.0472401013539732 2.5510704950045078 2.6740780809270048 Si
    velocity -6.1997724867576549 0.0671599612153185 -6.3920736589340601
atom 2.9407782834976657 -0.0542905871903751 2.6552653509135018 Si
    velocity -0.7238279491876857 2.3887154765235552 -0.2249448510816168
atom 2.5827665917273235 2.8547735905866940 -0.0843771833005668 Si
    velocity 7.3498660051685851 -7.1625755086986089 8.8193299723447360
atom 1.3814233511069127 1.3881546745397895 1.4361727420676871 Si
    velocity -5.2703842442559825 -3.8662713778902660 1.6912636302584498
atom 1.3424225728995935 4.3420850429068425 3.9291900925576253 Si
    velocity 6.4696713362559466 2.9904374395089031 -0.9669171779260335
atom 4.0556661023887015 1.3288846760729784 4.0660186355604742 Si
    velocity -4.5983170269707374 1.2813395718110421 -7.3848034326081713
atom 3.9843471725651414 3.7513089483616113 1.3479161550946674 Si
    velocity 0.6432577734072017 9.1608251047341120 1.2887270716507788
