#=======================================================
# FHI-aims file: geometry.in
# Created using the Atomic Simulation Environment (ASE)
# Tue Jun 10 14:22:20 2025
#=======================================================
lattice_vector 5.4088325884509993 0.0000000000639995 0.0000000001369997 
lattice_vector 0.0000000000629998 5.4088325742939993 0.0000000001030003 
lattice_vector 0.0000000001370002 0.0000000001020002 5.4088325742309999 
atom -0.0133571892774768 0.0007697759804781 0.0453392901456162 Si
atom -0.0194743289714130 2.6390799936287102 2.7106635275259654 Si
atom 2.7288339430911042 -0.0324751045871555 2.6499063855582663 Si
atom 2.7228045277698580 2.7811210494974170 0.0001214884356016 Si
atom 1.4443244284719212 1.3381736593282068 1.3147656065114148 Si
atom 1.3257969699817675 4.1344424716129344 4.0314609860150119 Si
atom 3.9963149202044495 1.3753180966806238 4.0644372527862229 Si
atom 4.0412544947065658 3.9900677812927872 1.4098031864364349 Si
