#=======================================================
# FHI-aims file: geometry.in
# Created using the Atomic Simulation Environment (ASE)
# Tue Jun 10 14:39:45 2025
#=======================================================
lattice_vector 5.4088325884509993 0.0000000000639995 0.0000000001369997 
lattice_vector 0.0000000000629998 5.4088325742939993 0.0000000001030003 
lattice_vector 0.0000000001370002 0.0000000001020002 5.4088325742309999 
atom 0.0636832079885683 0.0783845611068930 0.0572257616729238 Si
atom -0.0613580571289694 2.6680344894394867 2.6955371608321785 Si
atom 2.6332170426258452 -0.0575168534015419 2.7371456470826088 Si
atom 2.7458188586448760 2.7409812494292747 -0.1124661958644655 Si
atom 1.3776570099552616 1.4121236944052622 1.3995509388579466 Si
atom 1.3228280190673012 4.1468512952538186 4.0934535069390119 Si
atom 4.1008065632252020 1.1961648139018872 3.9947873481399290 Si
atom 4.0438451215063740 4.0414744731924701 1.3612635557567287 Si
