#=======================================================
# FHI-aims file: ./geometry.in
# Created using the Atomic Simulation Environment (ASE)
# Tue Jun 10 14:34:22 2025
#=======================================================
lattice_vector 5.4088325884509993 0.0000000000639995 0.0000000001369997 
lattice_vector 0.0000000000629998 5.4088325742939993 0.0000000001030003 
lattice_vector 0.0000000001370002 0.0000000001020002 5.4088325742309999 
atom_frac -0.0096488786361876 -0.0019052038435284 -0.0268904196141998 Si
atom_frac 0.0015619945304777 0.5028802834965420 0.4971026230697303 Si
atom_frac 0.5103683313990544 -0.0031102134280483 0.5052464650810683 Si
atom_frac 0.4955572740625063 0.4971188453141445 0.0150597899720352 Si
atom_frac 0.2382430169732949 0.2344921552438709 0.2522052723813399 Si
atom_frac 0.2650527064497483 0.7572674498016537 0.7550502021238186 Si
atom_frac 0.7516351876107196 0.2672243027652765 0.7539590781752238 Si
atom_frac 0.7472303676038796 0.7460323806626792 0.2482669888099896 Si
