#=======================================================
# FHI-aims file: ./geometry.in
# Created using the Atomic Simulation Environment (ASE)
# Tue Jun 10 15:10:47 2025
#=======================================================
lattice_vector 5.4088325884509993 0.0000000000639995 0.0000000001369997 
lattice_vector 0.0000000000629998 5.4088325742939993 0.0000000001030003 
lattice_vector 0.0000000001370002 0.0000000001020002 5.4088325742309999 
atom_frac -0.0083146068776524 -0.0216676841124337 -0.0029426453682278 Si
atom_frac 0.0079988967741536 0.4954103601958883 0.5175315510420327 Si
atom_frac 0.4901693361166467 0.0178309206544386 0.4771225544649420 Si
atom_frac 0.5116725899517579 0.4875777320367354 0.0127646378548711 Si
atom_frac 0.2203250325217850 0.2788287546024625 0.2358937699840433 Si
atom_frac 0.2682767562193413 0.7326166073327578 0.7537981897883161 Si
atom_frac 0.7685931605086851 0.2474579577194130 0.7481326142270939 Si
atom_frac 0.7412788347878579 0.7619453516252838 0.2576993280073774 Si
