#=======================================================
# FHI-aims file: ./geometry.in
# Created using the Atomic Simulation Environment (ASE)
# Tue Jun 10 15:17:30 2025
#=======================================================
lattice_vector 5.4088325884509993 0.0000000000639995 0.0000000001369997 
lattice_vector 0.0000000000629998 5.4088325742939993 0.0000000001030003 
lattice_vector 0.0000000001370002 0.0000000001020002 5.4088325742309999 
atom_frac -0.0128320712586676 0.0146789308900451 0.0341265680424435 Si
atom_frac 0.0108383976947582 0.4715423794260402 0.4978892303683701 Si
atom_frac 0.5447568221295517 -0.0167442085994723 0.4963218491014275 Si
atom_frac 0.4560462708029218 0.5257045538386073 -0.0340807714483027 Si
atom_frac 0.2750527689271173 0.2432574897946367 0.2579736579945150 Si
atom_frac 0.2160717831935158 0.7904916144618691 0.7312026201974888 Si
atom_frac 0.7495256485947954 0.2696530902090233 0.7807005539427159 Si
atom_frac 0.7605403799111670 0.7014161499917069 0.2358662918004334 Si
