#=======================================================
# FHI-aims file: geometry.in
# Created using the Atomic Simulation Environment (ASE)
# Tue Jun 10 15:21:15 2025
#=======================================================
lattice_vector 5.4088325884509993 0.0000000000639995 0.0000000001369997 
lattice_vector 0.0000000000629998 5.4088325742939993 0.0000000001030003 
lattice_vector 0.0000000001370002 0.0000000001020002 5.4088325742309999 
atom -0.0178645342599483 -0.0052682821569627 -0.0559693757520886 Si
atom 0.0413661458356969 2.7419967102244742 2.6462350599852602 Si
atom 2.8558927447817091 0.0532503719823308 2.7747911908539997 Si
atom 2.5366644091973525 2.6324374297792659 0.0715474540875177 Si
atom 1.2587605242730784 1.2165433245166597 1.3124109237125157 Si
atom 1.4130632606560394 3.9136965549838840 4.0902048976358820 Si
atom 4.0919876465299723 1.5226349956350083 4.0203267707252719 Si
atom 4.0466275689637419 4.1512066183775698 1.3669508021605921 Si
