#=======================================================
# FHI-aims file: ./geometry.in
# Created using the Atomic Simulation Environment (ASE)
# Tue Jun 10 14:59:32 2025
#=======================================================
lattice_vector 5.4088325884509993 0.0000000000639995 0.0000000001369997 
lattice_vector 0.0000000000629998 5.4088325742939993 0.0000000001030003 
lattice_vector 0.0000000001370002 0.0000000001020002 5.4088325742309999 
atom_frac 0.0106965023637011 -0.0091249007057260 -0.0144675041787213 Si
atom_frac 0.0237528243068230 0.5126757270839057 0.5044040969460806 Si
atom_frac 0.4639459832924389 0.0046746436000585 0.4861554538000154 Si
atom_frac 0.5183360689451130 0.4975403457432070 0.0134629958762371 Si
atom_frac 0.2357595706658815 0.2730321617417695 0.2412287546933259 Si
atom_frac 0.2553312678223567 0.7409515017792044 0.7579275943754309 Si
atom_frac 0.7452801465768301 0.2231443340140964 0.7461236759506573 Si
atom_frac 0.7468976360701824 0.7571061867292850 0.2651649325389059 Si
