#=======================================================
# FHI-aims file: geometry.in
# Created using the Atomic Simulation Environment (ASE)
# Tue Jun 10 14:20:56 2025
#=======================================================
lattice_vector 5.4088325884509993 0.0000000000639995 0.0000000001369997 
lattice_vector 0.0000000000629998 5.4088325742939993 0.0000000001030003 
lattice_vector 0.0000000001370002 0.0000000001020002 5.4088325742309999 
atom 0.0169295487411680 -0.0486779539835198 -0.1012636372005709 Si
atom 0.0560413165607483 2.6984236033535929 2.6938354087872494 Si
atom 2.6899367313509681 0.0357302264975250 2.7233966376592567 Si
atom 2.6907211516656813 2.6922552316723674 0.0639086623166806 Si
atom 1.3863207281467254 1.3938387806390500 1.3857807083344789 Si
atom 1.3714504065596194 4.0407563713166903 4.0590887980913246 Si
atom 4.0034669020240221 1.3770087442087406 4.1349109595846461 Si
atom 4.0116309810164248 4.0371627197559903 1.2668401858380418 Si
