#=======================================================
# FHI-aims file: geometry.in
# Created using the Atomic Simulation Environment (ASE)
# Tue Jun 10 14:35:57 2025
#=======================================================
lattice_vector 5.4088325884509993 0.0000000000639995 0.0000000001369997 
lattice_vector 0.0000000000629998 5.4088325742939993 0.0000000001030003 
lattice_vector 0.0000000001370002 0.0000000001020002 5.4088325742309999 
atom -0.0397713653948026 0.0800074564336479 0.0160898675255125 Si
atom -0.0194284943472993 2.6817190850882144 2.7398804278144895 Si
atom 2.7451291682132486 -0.0491452968896334 2.5989136128394108 Si
atom 2.7133856157581073 2.6953798739181689 -0.0100185580488667 Si
atom 1.3645344861710031 1.3549658336883279 1.3949676830764939 Si
atom 1.3238371845282020 4.0153642706276171 4.1227966041373163 Si
atom 4.0576627474753710 1.4016527399035310 4.0772599036437205 Si
atom 4.0811484235183562 4.0465537606111583 1.2866081824217692 Si
