#=======================================================
# FHI-aims file: ./geometry.in
# Created using the Atomic Simulation Environment (ASE)
# Tue Jun 10 15:16:50 2025
#=======================================================
lattice_vector 5.4088325884509993 0.0000000000639995 0.0000000001369997 
lattice_vector 0.0000000000629998 5.4088325742939993 0.0000000001030003 
lattice_vector 0.0000000001370002 0.0000000001020002 5.4088325742309999 
atom_frac 0.0195390438473304 0.0352232341971288 -0.0347991749855139 Si
atom_frac -0.0247101528207140 0.4765375144848507 0.5084097789771264 Si
atom_frac 0.5360515590672622 -0.0300884857250862 0.4857402865800259 Si
atom_frac 0.4860170760679756 0.5270400939776737 0.0243317027871183 Si
atom_frac 0.2602887859307688 0.2526333920871095 0.2680714134757679 Si
atom_frac 0.2245722238264785 0.7188280242047177 0.7123524156376322 Si
atom_frac 0.7053885834589563 0.2406323435204388 0.7816457252891948 Si
atom_frac 0.7928528806612902 0.7791938832282560 0.2542478522342946 Si
