#=======================================================
# FHI-aims file: geometry.in.supercell
# Created using the Atomic Simulation Environment (ASE)
# Mon Jun  9 22:52:46 2025

# Additional information:
#  Number of atoms:     512
#=======================================================
lattice_vector 21.6740220587279993 -0.0000000000960008 0.0000000000880008 
lattice_vector -0.0000000000959991 21.6740217565999984 0.0000000000159992 
lattice_vector 0.0000000000879984 0.0000000000160008 21.6740217568639970 
atom 0.0000000001178001 0.0000000000268379 21.6740217568071039 Si
atom 0.0000000000288017 2.7092527195878366 2.7092527195531053 Si
atom 0.0000000000278016 5.4185054391648366 5.4185054391631047 Si
atom 0.0000000000268015 8.1277581587418357 8.1277581587731031 Si
atom 0.0000000000258014 10.8370108783188357 10.8370108783831025 Si
atom 0.0000000000248013 13.5462635978958357 13.5462635979931036 Si
atom 0.0000000000238012 16.2555163174728321 16.2555163176030995 Si
atom 0.0000000000228012 18.9647690370498339 18.9647690372131024 Si
atom 2.7092527573818015 0.0000000000008370 2.7092527195621057 Si
atom 2.7092527573808018 2.7092527195778366 5.4185054391721046 Si
atom 2.7092527573798013 5.4185054391548366 8.1277581587821039 Si
atom 2.7092527573788012 8.1277581587318348 10.8370108783921033 Si
atom 2.7092527573778016 10.8370108783088348 13.5462635980021027 Si
atom 2.7092527573768010 13.5462635978858348 16.2555163176121020 Si
atom 2.7092527573758010 16.2555163174628348 18.9647690372221014 Si
atom 2.7092527573748013 18.9647690370398365 21.6740217568321007 Si
atom 5.4185055147338002 -0.0000000000091630 5.4185054391811045 Si
atom 5.4185055147328001 2.7092527195678371 8.1277581587911047 Si
atom 5.4185055147318009 5.4185054391448366 10.8370108784011041 Si
atom 5.4185055147307999 8.1277581587218357 13.5462635980111035 Si
atom 5.4185055147297998 10.8370108782988357 16.2555163176211046 Si
atom 5.4185055147288006 13.5462635978758357 18.9647690372311040 Si
atom 5.4185055147277996 16.2555163174528339 21.6740217568410962 Si
atom 5.4185055146388015 18.9647690370138342 2.7092527195871043 Si
atom 8.1277582720857993 -0.0000000000191630 8.1277581588001038 Si
atom 8.1277582720847992 2.7092527195578366 10.8370108784101031 Si
atom 8.1277582720837991 5.4185054391348366 13.5462635980201043 Si
atom 8.1277582720827990 8.1277581587118366 16.2555163176301001 Si
atom 8.1277582720817989 10.8370108782888366 18.9647690372400994 Si
atom 8.1277582720807988 13.5462635978658366 21.6740217568500988 Si
atom 8.1277582719917998 16.2555163174268316 2.7092527195960998 Si
atom 8.1277582719908015 18.9647690370038333 5.4185054392061041 Si
atom 10.8370110294377984 -0.0000000000291630 10.8370108784191039 Si
atom 10.8370110294368001 2.7092527195478366 13.5462635980291015 Si
atom 10.8370110294357982 5.4185054391248366 16.2555163176391027 Si
atom 10.8370110294347981 8.1277581587018357 18.9647690372491020 Si
atom 10.8370110294337998 10.8370108782788357 21.6740217568591014 Si
atom 10.8370110293447990 13.5462635978398342 2.7092527196051051 Si
atom 10.8370110293438007 16.2555163174168307 5.4185054392150995 Si
atom 10.8370110293428006 18.9647690369938360 8.1277581588251042 Si
atom 13.5462637867897993 -0.0000000000391630 13.5462635980381041 Si
atom 13.5462637867887992 2.7092527195378366 16.2555163176481052 Si
atom 13.5462637867877973 5.4185054391148366 18.9647690372581046 Si
atom 13.5462637867867990 8.1277581586918366 21.6740217568681039 Si
atom 13.5462637866978000 10.8370108782528352 2.7092527196141050 Si
atom 13.5462637866967999 13.5462635978298351 5.4185054392241048 Si
atom 13.5462637866957998 16.2555163174068333 8.1277581588340997 Si
atom 13.5462637866947997 18.9647690369838351 10.8370108784441044 Si
atom 16.2555165441418019 -0.0000000000491630 16.2555163176571043 Si
atom 16.2555165441408001 2.7092527195278366 18.9647690372671036 Si
atom 16.2555165441398017 5.4185054391048366 21.6740217568771030 Si
atom 16.2555165440508027 8.1277581586658343 2.7092527196231053 Si
atom 16.2555165440498008 10.8370108782428343 5.4185054392331047 Si
atom 16.2555165440488061 13.5462635978198342 8.1277581588431040 Si
atom 16.2555165440478042 16.2555163173968324 10.8370108784531034 Si
atom 16.2555165440468024 18.9647690369738342 13.5462635980631028 Si
atom 18.9647693014937957 -0.0000000000591630 18.9647690372761026 Si
atom 18.9647693014927938 2.7092527195178366 21.6740217568861020 Si
atom 18.9647693014037984 5.4185054390788361 2.7092527196321057 Si
atom 18.9647693014027965 8.1277581586558352 5.4185054392421055 Si
atom 18.9647693014017982 10.8370108782328352 8.1277581588521048 Si
atom 18.9647693014007999 13.5462635978098351 10.8370108784621042 Si
atom 18.9647693013997980 16.2555163173868316 13.5462635980720982 Si
atom 18.9647693013987961 18.9647690369638333 16.2555163176821047 Si
atom 2.7092527574468006 2.7092527195898382 21.6740217568201032 Si
atom 2.7092527573578016 5.4185054391508363 2.7092527195661051 Si
atom 2.7092527573568019 8.1277581587278380 5.4185054391761049 Si
atom 2.7092527573558018 10.8370108783048344 8.1277581587861025 Si
atom 2.7092527573548013 13.5462635978818344 10.8370108783961019 Si
atom 2.7092527573538017 16.2555163174588344 13.5462635980061030 Si
atom 2.7092527573528016 18.9647690370358326 16.2555163176160988 Si
atom 2.7092527574478003 0.0000000000128386 18.9647690372101039 Si
atom 5.4185055147108017 2.7092527195638372 2.7092527195751055 Si
atom 5.4185055147098016 5.4185054391408363 5.4185054391851049 Si
atom 5.4185055147088015 8.1277581587178371 8.1277581587951051 Si
atom 5.4185055147078014 10.8370108782948353 10.8370108784051045 Si
atom 5.4185055147068013 13.5462635978718353 13.5462635980151038 Si
atom 5.4185055147058012 16.2555163174488335 16.2555163176251014 Si
atom 5.4185055147048011 18.9647690370258317 18.9647690372351008 Si
atom 5.4185055147997998 0.0000000000028386 21.6740217568291023 Si
atom 8.1277582720628025 2.7092527195538372 5.4185054391941048 Si
atom 8.1277582720618007 5.4185054391308363 8.1277581588041041 Si
atom 8.1277582720608006 8.1277581587078380 10.8370108784141035 Si
atom 8.1277582720598023 10.8370108782848362 13.5462635980241028 Si
atom 8.1277582720588004 13.5462635978618362 16.2555163176341040 Si
atom 8.1277582720578003 16.2555163174388362 18.9647690372441033 Si
atom 8.1277582720568020 18.9647690370158344 21.6740217568540956 Si
atom 8.1277582720638009 -0.0000000000231622 2.7092527195841054 Si
atom 10.8370110294147999 2.7092527195438372 8.1277581588131032 Si
atom 10.8370110294137980 5.4185054391208363 10.8370108784231025 Si
atom 10.8370110294127997 8.1277581586978371 13.5462635980331036 Si
atom 10.8370110294117996 10.8370108782748353 16.2555163176430995 Si
atom 10.8370110294107977 13.5462635978518353 18.9647690372530988 Si
atom 10.8370110294097994 16.2555163174288353 21.6740217568630982 Si
atom 10.8370110293208004 18.9647690369898321 2.7092527196091001 Si
atom 10.8370110294158000 -0.0000000000331622 5.4185054392031047 Si
atom 13.5462637867667990 2.7092527195338367 10.8370108784321033 Si
atom 13.5462637867657989 5.4185054391108372 13.5462635980421009 Si
atom 13.5462637867647988 8.1277581586878380 16.2555163176521020 Si
atom 13.5462637867637987 10.8370108782648362 18.9647690372621014 Si
atom 13.5462637867627986 13.5462635978418362 21.6740217568721008 Si
atom 13.5462637866737996 16.2555163174028330 2.7092527196181049 Si
atom 13.5462637866728013 18.9647690369798312 5.4185054392280998 Si
atom 13.5462637867677991 -0.0000000000431622 8.1277581588221057 Si
atom 16.2555165441187981 2.7092527195238372 13.5462635980511035 Si
atom 16.2555165441177998 5.4185054391008372 16.2555163176611046 Si
atom 16.2555165441167979 8.1277581586778371 18.9647690372711040 Si
atom 16.2555165441157961 10.8370108782548353 21.6740217568811033 Si
atom 16.2555165440268006 13.5462635978158339 2.7092527196271052 Si
atom 16.2555165440257987 16.2555163173928356 5.4185054392371050 Si
atom 16.2555165440248004 18.9647690369698303 8.1277581588470991 Si
atom 16.2555165441198000 -0.0000000000531622 10.8370108784411041 Si
atom 18.9647693014707990 2.7092527195138372 16.2555163176701036 Si
atom 18.9647693014698007 5.4185054390908363 18.9647690372801030 Si
atom 18.9647693014687988 8.1277581586678380 21.6740217568901024 Si
atom 18.9647693013797998 10.8370108782288348 2.7092527196361056 Si
atom 18.9647693013788015 13.5462635978058348 5.4185054392461049 Si
atom 18.9647693013778031 16.2555163173828348 8.1277581588561052 Si
atom 18.9647693013768013 18.9647690369598330 10.8370108784661046 Si
atom 18.9647693014718008 -0.0000000000631622 13.5462635980601043 Si
atom 0.0000000000947983 2.7092527195998382 18.9647690372011013 Si
atom 0.0000000000937982 5.4185054391768368 21.6740217568111007 Si
atom 0.0000000000047998 8.1277581587378371 2.7092527195571048 Si
atom 0.0000000000037997 10.8370108783148353 5.4185054391671041 Si
atom 0.0000000000027996 13.5462635978918353 8.1277581587771035 Si
atom 0.0000000000017995 16.2555163174688353 10.8370108783871029 Si
atom 0.0000000000007994 18.9647690370458335 13.5462635979970987 Si
atom 0.0000000000957984 0.0000000000228386 16.2555163175911019 Si
atom 5.4185055147757994 5.4185054391528364 21.6740217568331026 Si
atom 5.4185055146868013 8.1277581587138368 2.7092527195791054 Si
atom 5.4185055146858003 10.8370108782908368 5.4185054391891052 Si
atom 5.4185055146848011 13.5462635978678350 8.1277581587991037 Si
atom 5.4185055146838010 16.2555163174448332 10.8370108784091030 Si
atom 5.4185055146828001 18.9647690370218349 13.5462635980191024 Si
atom 5.4185055147777996 -0.0000000000011664 16.2555163176131003 Si
atom 5.4185055147767995 2.7092527195758382 18.9647690372231033 Si
atom 8.1277582720398005 5.4185054391268359 2.7092527195881053 Si
atom 8.1277582720388022 8.1277581587038359 5.4185054391981051 Si
atom 8.1277582720378021 10.8370108782808376 8.1277581588081045 Si
atom 8.1277582720368002 13.5462635978578358 10.8370108784181038 Si
atom 8.1277582720358019 16.2555163174348358 13.5462635980281032 Si
atom 8.1277582720348018 18.9647690370118340 16.2555163176381043 Si
atom 8.1277582721297996 -0.0000000000111664 18.9647690372321023 Si
atom 8.1277582721288013 2.7092527195658382 21.6740217568421016 Si
atom 10.8370110293917996 5.4185054391168359 5.4185054392071050 Si
atom 10.8370110293907995 8.1277581586938368 8.1277581588171053 Si
atom 10.8370110293897994 10.8370108782708368 10.8370108784271046 Si
atom 10.8370110293887993 13.5462635978478350 13.5462635980371040 Si
atom 10.8370110293877993 16.2555163174248349 16.2555163176471034 Si
atom 10.8370110293867992 18.9647690370018367 18.9647690372571027 Si
atom 10.8370110294817987 -0.0000000000211664 21.6740217568510971 Si
atom 10.8370110293927997 2.7092527195398377 2.7092527195971052 Si
atom 13.5462637867437987 5.4185054391068368 8.1277581588261043 Si
atom 13.5462637867427986 8.1277581586838359 10.8370108784361037 Si
atom 13.5462637867418003 10.8370108782608376 13.5462635980461030 Si
atom 13.5462637867407985 13.5462635978378358 16.2555163176561024 Si
atom 13.5462637867397984 16.2555163174148340 18.9647690372661017 Si
atom 13.5462637867388001 18.9647690369918358 21.6740217568761011 Si
atom 13.5462637867457989 -0.0000000000471673 2.7092527196061007 Si
atom 13.5462637867448006 2.7092527195298377 5.4185054392161049 Si
atom 16.2555165440958014 5.4185054390968368 10.8370108784451027 Si
atom 16.2555165440947995 8.1277581586738368 13.5462635980551021 Si
atom 16.2555165440937976 10.8370108782508368 16.2555163176651050 Si
atom 16.2555165440927993 13.5462635978278350 18.9647690372751008 Si
atom 16.2555165440917975 16.2555163174048367 21.6740217568851001 Si
atom 16.2555165440027984 18.9647690369658335 2.7092527196311051 Si
atom 16.2555165440977980 -0.0000000000571673 5.4185054392251004 Si
atom 16.2555165440967997 2.7092527195198377 8.1277581588351051 Si
atom 18.9647693014477987 5.4185054390868368 13.5462635980641046 Si
atom 18.9647693014467968 8.1277581586638359 16.2555163176741040 Si
atom 18.9647693014457950 10.8370108782408376 18.9647690372841033 Si
atom 18.9647693014447967 13.5462635978178358 21.6740217568941027 Si
atom 18.9647693013557976 16.2555163173788344 2.7092527196401051 Si
atom 18.9647693013547958 18.9647690369558326 5.4185054392501044 Si
atom 18.9647693014497989 -0.0000000000671673 8.1277581588441006 Si
atom 18.9647693014487970 2.7092527195098373 10.8370108784541053 Si
atom 0.0000000000717986 5.4185054391728373 16.2555163175951023 Si
atom 0.0000000000707985 8.1277581587498382 18.9647690372051017 Si
atom 0.0000000000697984 10.8370108783268382 21.6740217568151010 Si
atom -0.0000000000192000 13.5462635978878350 2.7092527195611047 Si
atom -0.0000000000202001 16.2555163174648349 5.4185054391711045 Si
atom -0.0000000000212002 18.9647690370418331 8.1277581587811039 Si
atom 0.0000000000737988 0.0000000000188336 10.8370108783751036 Si
atom 0.0000000000727987 2.7092527195958382 13.5462635979851029 Si
atom 2.7092527574237981 5.4185054391628364 18.9647690372141007 Si
atom 2.7092527574227985 8.1277581587398373 21.6740217568241000 Si
atom 2.7092527573337999 10.8370108783008376 2.7092527195701046 Si
atom 2.7092527573327998 13.5462635978778341 5.4185054391801044 Si
atom 2.7092527573317997 16.2555163174548341 8.1277581587901047 Si
atom 2.7092527573307996 18.9647690370318358 10.8370108784001040 Si
atom 2.7092527574257987 0.0000000000088336 13.5462635979940984 Si
atom 2.7092527574247987 2.7092527195858382 16.2555163176041049 Si
atom 8.1277582721047992 8.1277581587158370 21.6740217568461020 Si
atom 8.1277582720158001 10.8370108782768355 2.7092527195921052 Si
atom 8.1277582720148001 13.5462635978538355 5.4185054392021055 Si
atom 8.1277582720138000 16.2555163174308355 8.1277581588121031 Si
atom 8.1277582720127999 18.9647690370078337 10.8370108784221024 Si
atom 8.1277582721077994 -0.0000000000151666 13.5462635980161039 Si
atom 8.1277582721067994 2.7092527195618334 16.2555163176260997 Si
atom 8.1277582721057975 5.4185054391388325 18.9647690372361026 Si
atom 10.8370110293687993 8.1277581586898346 2.7092527196011056 Si
atom 10.8370110293678010 10.8370108782668346 5.4185054392111045 Si
atom 10.8370110293667992 13.5462635978438346 8.1277581588211039 Si
atom 10.8370110293657991 16.2555163174208346 10.8370108784311032 Si
atom 10.8370110293648008 18.9647690369978363 13.5462635980411026 Si
atom 10.8370110294597986 -0.0000000000251666 16.2555163176351023 Si
atom 10.8370110294587985 2.7092527195518334 18.9647690372451017 Si
atom 10.8370110294577984 5.4185054391288325 21.6740217568551010 Si
atom 13.5462637867208002 8.1277581586798355 5.4185054392201053 Si
atom 13.5462637867198001 10.8370108782568355 8.1277581588301047 Si
atom 13.5462637867187983 13.5462635978338355 10.8370108784401040 Si
atom 13.5462637867178000 16.2555163174108337 13.5462635980501034 Si
atom 13.5462637867167999 18.9647690369878354 16.2555163176601027 Si
atom 13.5462637868117977 -0.0000000000351666 18.9647690372541042 Si
atom 13.5462637868107993 2.7092527195418334 21.6740217568640965 Si
atom 13.5462637867217985 5.4185054391028320 2.7092527196101055 Si
atom 16.2555165440728011 8.1277581586698346 8.1277581588391037 Si
atom 16.2555165440717992 10.8370108782468346 10.8370108784491030 Si
atom 16.2555165440708009 13.5462635978238346 13.5462635980591042 Si
atom 16.2555165440697991 16.2555163174008364 16.2555163176691018 Si
atom 16.2555165440687972 18.9647690369778346 18.9647690372791011 Si
atom 16.2555165441637968 -0.0000000000451666 21.6740217568730991 Si
atom 16.2555165440747977 2.7092527195158325 2.7092527196191010 Si
atom 16.2555165440737994 5.4185054390928329 5.4185054392291052 Si
atom 18.9647693014247984 8.1277581586598355 10.8370108784581038 Si
atom 18.9647693014237966 10.8370108782368355 13.5462635980681014 Si
atom 18.9647693014227983 13.5462635978138355 16.2555163176781043 Si
atom 18.9647693014217964 16.2555163173908355 18.9647690372881002 Si
atom 18.9647693014207945 18.9647690369678337 21.6740217568980995 Si
atom 18.9647693014277969 -0.0000000000711675 2.7092527196281058 Si
atom 18.9647693014267951 2.7092527195058325 5.4185054392381007 Si
atom 18.9647693014258003 5.4185054390828329 8.1277581588481045 Si
atom 0.0000000000487989 8.1277581587458361 13.5462635979891033 Si
atom 0.0000000000477989 10.8370108783228360 16.2555163175991026 Si
atom 0.0000000000467988 13.5462635978998360 18.9647690372091020 Si
atom 0.0000000000457987 16.2555163174768360 21.6740217568191014 Si
atom -0.0000000000431998 18.9647690370378328 2.7092527195651042 Si
atom 0.0000000000517992 0.0000000000148334 5.4185054391591043 Si
atom 0.0000000000507991 2.7092527195918334 8.1277581587690992 Si
atom 0.0000000000497990 5.4185054391688334 10.8370108783791039 Si
atom 2.7092527574007987 8.1277581587358352 16.2555163176081017 Si
atom 2.7092527573997987 10.8370108783128352 18.9647690372181010 Si
atom 2.7092527573987986 13.5462635978898351 21.6740217568281004 Si
atom 2.7092527573098000 16.2555163174508337 2.7092527195741045 Si
atom 2.7092527573088003 18.9647690370278355 5.4185054391841039 Si
atom 2.7092527574037990 0.0000000000048334 8.1277581587781036 Si
atom 2.7092527574027989 2.7092527195818330 10.8370108783881047 Si
atom 2.7092527574017988 5.4185054391588334 13.5462635979981041 Si
atom 5.4185055147527983 8.1277581587258361 18.9647690372271001 Si
atom 5.4185055147517973 10.8370108783028360 21.6740217568370994 Si
atom 5.4185055146628001 13.5462635978638346 2.7092527195831049 Si
atom 5.4185055146617991 16.2555163174408328 5.4185054391931047 Si
atom 5.4185055146607990 18.9647690370178346 8.1277581588031040 Si
atom 5.4185055147557986 -0.0000000000051666 10.8370108783971038 Si
atom 5.4185055147547976 2.7092527195718330 13.5462635980070996 Si
atom 5.4185055147537984 5.4185054391488334 16.2555163176171042 Si
atom 1.3546263786401995 1.3546263597716595 1.3546263598673896 Si
atom 1.3546263786391994 4.0638790793486592 4.0638790794773891 Si
atom 1.3546263786381993 6.7731317989256592 6.7731317990873885 Si
atom 1.3546263786371993 9.4823845185026592 9.4823845186973870 Si
atom 1.3546263786361992 12.1916372380796592 12.1916372383073881 Si
atom 1.3546263786351991 14.9008899576566574 14.9008899579173839 Si
atom 1.3546263786341990 17.6101426772336573 17.6101426775273850 Si
atom 1.3546263786331989 20.3193953968106555 20.3193953971373844 Si
atom 4.0638791359921997 1.3546263597616597 4.0638790794863890 Si
atom 4.0638791359911997 4.0638790793386592 6.7731317990963884 Si
atom 4.0638791359901987 6.7731317989156592 9.4823845187063878 Si
atom 4.0638791359891995 9.4823845184926583 12.1916372383163853 Si
atom 4.0638791359881994 12.1916372380696600 14.9008899579263883 Si
atom 4.0638791359871984 14.9008899576466565 17.6101426775363841 Si
atom 4.0638791359861992 17.6101426772236564 20.3193953971463870 Si
atom 4.0638791358972002 20.3193953967846532 1.3546263598923889 Si
atom 6.7731318933442006 1.3546263597516595 6.7731317991053892 Si
atom 6.7731318933431996 4.0638790793286601 9.4823845187153886 Si
atom 6.7731318933421996 6.7731317989056601 12.1916372383253879 Si
atom 6.7731318933412004 9.4823845184826592 14.9008899579353855 Si
atom 6.7731318933401994 12.1916372380596592 17.6101426775453866 Si
atom 6.7731318933391993 14.9008899576366574 20.3193953971553825 Si
atom 6.7731318932502012 17.6101426771976577 1.3546263599013892 Si
atom 6.7731318932492011 20.3193953967746523 4.0638790795113886 Si
atom 9.4823846506961988 1.3546263597416595 9.4823845187243894 Si
atom 9.4823846506952005 4.0638790793186601 12.1916372383343887 Si
atom 9.4823846506942004 6.7731317988956601 14.9008899579443881 Si
atom 9.4823846506931986 9.4823845184726583 17.6101426775543857 Si
atom 9.4823846506922003 12.1916372380496600 20.3193953971643886 Si
atom 9.4823846506032012 14.9008899576106550 1.3546263599103894 Si
atom 9.4823846506022011 17.6101426771876568 4.0638790795203885 Si
atom 9.4823846506012011 20.3193953967646550 6.7731317991303888 Si
atom 12.1916374080481944 1.3546263597316597 12.1916372383433860 Si
atom 12.1916374080471943 4.0638790793086601 14.9008899579533853 Si
atom 12.1916374080461942 6.7731317988856592 17.6101426775633847 Si
atom 12.1916374080451941 9.4823845184626592 20.3193953971733805 Si
atom 12.1916374079561951 12.1916372380236577 1.3546263599193895 Si
atom 12.1916374079551968 14.9008899576006559 4.0638790795293840 Si
atom 12.1916374079541949 17.6101426771776559 6.7731317991393887 Si
atom 12.1916374079531948 20.3193953967546541 9.4823845187493827 Si
atom 14.9008901654001953 1.3546263597216595 14.9008899579623879 Si
atom 14.9008901653991952 4.0638790792986592 17.6101426775723873 Si
atom 14.9008901653981969 6.7731317988756592 20.3193953971823866 Si
atom 14.9008901653091961 9.4823845184366569 1.3546263599283850 Si
atom 14.9008901653081978 12.1916372380136586 4.0638790795383892 Si
atom 14.9008901653071977 14.9008899575906568 6.7731317991483841 Si
atom 14.9008901653061958 17.6101426771676550 9.4823845187583888 Si
atom 14.9008901653051975 20.3193953967446532 12.1916372383683829 Si
atom 17.6101429227521926 1.3546263597116595 17.6101426775813863 Si
atom 17.6101429227511908 4.0638790792886592 20.3193953971913857 Si
atom 17.6101429226621953 6.7731317988496587 1.3546263599373851 Si
atom 17.6101429226611934 9.4823845184266577 4.0638790795473847 Si
atom 17.6101429226601915 12.1916372380036577 6.7731317991573841 Si
atom 17.6101429226591968 14.9008899575806559 9.4823845187673843 Si
atom 17.6101429226581949 17.6101426771576577 12.1916372383773837 Si
atom 17.6101429226571931 20.3193953967346559 14.9008899579873830 Si
atom 20.3193956801041935 1.3546263597016597 20.3193953972003847 Si
atom 20.3193956800151945 4.0638790792626587 1.3546263599463901 Si
atom 20.3193956800141962 6.7731317988396587 4.0638790795563846 Si
atom 20.3193956800131943 9.4823845184166569 6.7731317991663840 Si
atom 20.3193956800121960 12.1916372379936586 9.4823845187763887 Si
atom 20.3193956800111977 14.9008899575706568 12.1916372383863827 Si
atom 20.3193956800101958 17.6101426771476568 14.9008899579963874 Si
atom 20.3193956800091939 20.3193953967246550 17.6101426776063832 Si
atom 4.0638791359691986 4.0638790793346589 1.3546263598803896 Si
atom 4.0638791359681985 6.7731317989116588 4.0638790794903894 Si
atom 4.0638791359671993 9.4823845184886579 6.7731317991003888 Si
atom 4.0638791359661983 12.1916372380656561 9.4823845187103863 Si
atom 4.0638791359651982 14.9008899576426597 12.1916372383203875 Si
atom 4.0638791359641990 17.6101426772196561 14.9008899579303851 Si
atom 4.0638791359631981 20.3193953967966578 17.6101426775403880 Si
atom 4.0638791360581976 1.3546263597736579 20.3193953971343859 Si
atom 6.7731318933211986 4.0638790793246589 4.0638790794993893 Si
atom 6.7731318933201985 6.7731317989016597 6.7731317991093887 Si
atom 6.7731318933191984 9.4823845184786588 9.4823845187193889 Si
atom 6.7731318933181983 12.1916372380556570 12.1916372383293847 Si
atom 6.7731318933171982 14.9008899576326588 14.9008899579393876 Si
atom 6.7731318933161981 17.6101426772096552 17.6101426775493834 Si
atom 6.7731318933151980 20.3193953967866570 20.3193953971593864 Si
atom 6.7731318933221987 1.3546263597476569 1.3546263598893897 Si
atom 9.4823846506731986 4.0638790793146589 6.7731317991183886 Si
atom 9.4823846506721985 6.7731317988916597 9.4823845187283879 Si
atom 9.4823846506711984 9.4823845184686579 12.1916372383383873 Si
atom 9.4823846506701983 12.1916372380456561 14.9008899579483849 Si
atom 9.4823846506691982 14.9008899576226597 17.6101426775583860 Si
atom 9.4823846506681981 17.6101426771996543 20.3193953971683854 Si
atom 9.4823846505791991 20.3193953967606546 1.3546263599143891 Si
atom 9.4823846506741987 1.3546263597376571 4.0638790795083892 Si
atom 12.1916374080251995 4.0638790793046589 9.4823845187373887 Si
atom 12.1916374080242012 6.7731317988816597 12.1916372383473881 Si
atom 12.1916374080231993 9.4823845184586588 14.9008899579573875 Si
atom 12.1916374080221992 12.1916372380356570 17.6101426775673886 Si
atom 12.1916374080212009 14.9008899576126588 20.3193953971773880 Si
atom 12.1916374079322001 17.6101426771736520 1.3546263599233894 Si
atom 12.1916374079312018 20.3193953967506573 4.0638790795333888 Si
atom 12.1916374080261996 1.3546263597276569 6.7731317991273894 Si
atom 14.9008901653771950 4.0638790792946589 12.1916372383563854 Si
atom 14.9008901653761949 6.7731317988716597 14.9008899579663847 Si
atom 14.9008901653751931 9.4823845184486579 17.6101426775763841 Si
atom 14.9008901653741948 12.1916372380256579 20.3193953971863834 Si
atom 14.9008901652851957 14.9008899575866582 1.3546263599323896 Si
atom 14.9008901652841956 17.6101426771636547 4.0638790795423843 Si
atom 14.9008901652831955 20.3193953967406564 6.7731317991523889 Si
atom 14.9008901653781933 1.3546263597176569 9.4823845187463842 Si
atom 17.6101429227291959 4.0638790792846589 14.9008899579753891 Si
atom 17.6101429227281976 6.7731317988616588 17.6101426775853867 Si
atom 17.6101429227271957 9.4823845184386588 20.3193953971953860 Si
atom 17.6101429226381967 12.1916372379996556 1.3546263599413850 Si
atom 17.6101429226371984 14.9008899575766574 4.0638790795513895 Si
atom 17.6101429226361965 17.6101426771536538 6.7731317991613844 Si
atom 17.6101429226351982 20.3193953967306555 9.4823845187713882 Si
atom 17.6101429227301978 1.3546263597076571 12.1916372383653844 Si
atom 20.3193956800811932 4.0638790792746580 17.6101426775943857 Si
atom 20.3193956800801949 6.7731317988516588 20.3193953972043850 Si
atom 20.3193956799911959 9.4823845184126565 1.3546263599503852 Si
atom 20.3193956799901940 12.1916372379896565 4.0638790795603850 Si
atom 20.3193956799891957 14.9008899575666582 6.7731317991703843 Si
atom 20.3193956799881974 17.6101426771436529 9.4823845187803837 Si
atom 20.3193956799871955 20.3193953967206546 12.1916372383903830 Si
atom 20.3193956800821951 1.3546263596976569 14.9008899579843828 Si
atom 1.3546263787051942 4.0638790793606594 20.3193953971253833 Si
atom 1.3546263786161956 6.7731317989216588 1.3546263598713892 Si
atom 1.3546263786151957 9.4823845184986588 4.0638790794813842 Si
atom 1.3546263786141957 12.1916372380756570 6.7731317990913835 Si
atom 1.3546263786131953 14.9008899576526588 9.4823845187013873 Si
atom 1.3546263786121955 17.6101426772296534 12.1916372383113831 Si
atom 1.3546263786111954 20.3193953968066587 14.9008899579213878 Si
atom 1.3546263787061943 1.3546263597836579 17.6101426775153840 Si
atom 6.7731318932981983 6.7731317988976594 1.3546263598933896 Si
atom 6.7731318932971991 9.4823845184746585 4.0638790795033888 Si
atom 6.7731318932961990 12.1916372380516584 6.7731317991133890 Si
atom 6.7731318932951980 14.9008899576286566 9.4823845187233875 Si
atom 6.7731318932941988 17.6101426772056584 12.1916372383333869 Si
atom 6.7731318932931988 20.3193953967826531 14.9008899579433844 Si
atom 6.7731318933881974 1.3546263597596624 17.6101426775373859 Si
atom 6.7731318933871973 4.0638790793366573 20.3193953971473853 Si
atom 9.4823846506502019 6.7731317988876594 4.0638790795123896 Si
atom 9.4823846506492000 9.4823845184646594 6.7731317991223889 Si
atom 9.4823846506481999 12.1916372380416593 9.4823845187323883 Si
atom 9.4823846506472016 14.9008899576186558 12.1916372383423859 Si
atom 9.4823846506461997 17.6101426771956575 14.9008899579523870 Si
atom 9.4823846506451996 20.3193953967726557 17.6101426775623828 Si
atom 9.4823846507401992 1.3546263597496624 20.3193953971563879 Si
atom 9.4823846506512002 4.0638790793106567 1.3546263599023898 Si
atom 12.1916374080022010 6.7731317988776594 6.7731317991313889 Si
atom 12.1916374080011991 9.4823845184546585 9.4823845187413891 Si
atom 12.1916374080002008 12.1916372380316584 12.1916372383513885 Si
atom 12.1916374079992007 14.9008899576086566 14.9008899579613860 Si
atom 12.1916374079981988 17.6101426771856566 17.6101426775713854 Si
atom 12.1916374079972005 20.3193953967626548 20.3193953971813848 Si
atom 12.1916374080041994 1.3546263597236616 1.3546263599113899 Si
atom 12.1916374080032011 4.0638790793006567 4.0638790795213895 Si
atom 14.9008901653542001 6.7731317988676594 9.4823845187503881 Si
atom 14.9008901653532000 9.4823845184446593 12.1916372383603875 Si
atom 14.9008901653521999 12.1916372380216593 14.9008899579703886 Si
atom 14.9008901653511998 14.9008899575986575 17.6101426775803880 Si
atom 14.9008901653501997 17.6101426771756557 20.3193953971903873 Si
atom 14.9008901652612007 20.3193953967366525 1.3546263599363892 Si
atom 14.9008901653562003 1.3546263597136616 4.0638790795303894 Si
atom 14.9008901653552002 4.0638790792906567 6.7731317991403897 Si
atom 17.6101429227061956 6.7731317988576594 12.1916372383693865 Si
atom 17.6101429227051938 9.4823845184346585 14.9008899579793859 Si
atom 17.6101429227041919 12.1916372380116584 17.6101426775893835 Si
atom 17.6101429227031936 14.9008899575886566 20.3193953971993828 Si
atom 17.6101429226141946 17.6101426771496570 1.3546263599453896 Si
atom 17.6101429226131927 20.3193953967266552 4.0638790795553845 Si
atom 17.6101429227081923 1.3546263597036614 6.7731317991493896 Si
atom 17.6101429227071939 4.0638790792806567 9.4823845187593836 Si
atom 20.3193956800581965 6.7731317988476594 14.9008899579883884 Si
atom 20.3193956800571947 9.4823845184246593 17.6101426775983860 Si
atom 20.3193956800561928 12.1916372380016593 20.3193953972083889 Si
atom 20.3193956799671973 14.9008899575626561 1.3546263599543849 Si
atom 20.3193956799661954 17.6101426771396561 4.0638790795643889 Si
atom 20.3193956799651936 20.3193953967166543 6.7731317991743838 Si
atom 20.3193956800601967 1.3546263596936616 9.4823845187683897 Si
atom 20.3193956800591948 4.0638790792706567 12.1916372383783838 Si
atom 1.3546263786821944 6.7731317989336590 17.6101426775193843 Si
atom 1.3546263786811945 9.4823845185106599 20.3193953971293837 Si
atom 1.3546263785921959 12.1916372380716584 1.3546263598753843 Si
atom 1.3546263785911958 14.9008899576486566 4.0638790794853836 Si
atom 1.3546263785901960 17.6101426772256566 6.7731317990953830 Si
atom 1.3546263785891957 20.3193953968026548 9.4823845187053823 Si
atom 1.3546263786841948 1.3546263597796624 12.1916372382993838 Si
atom 1.3546263786831947 4.0638790793566582 14.9008899579093832 Si
atom 4.0638791360341937 6.7731317989236590 20.3193953971383827 Si
atom 4.0638791359451956 9.4823845184846594 1.3546263598843893 Si