#=======================================================
# FHI-aims file: geometry.in.supercell.0700K.017
# Created using the Atomic Simulation Environment (ASE)
# Tue Jun 10 14:20:54 2025

# Additional information:
#  created from force constants
#  T = 700.0 K
#  quantum:             True
#  deterministic:       False
#  plus_minus:          False
#  gauge_eigenvectors:  False
#  Random seed:         993877198
#  Sample number:       18
#  Harmonic E_pot:        0.435eV (420.22K)
#=======================================================
lattice_vector 5.4088325884509993 0.0000000000639995 0.0000000001369997 
lattice_vector 0.0000000000629998 5.4088325742939993 0.0000000001030003 
lattice_vector 0.0000000001370002 0.0000000001020002 5.4088325742309999 
atom -0.0571429987785602 -0.1231328609959393 -0.0389033627299552 Si
    velocity 0.3206581255538978 0.3980072429870342 -11.3766992895339598
atom 0.0529620706844952 2.6392458196557604 2.7819920342257736 Si
    velocity -1.1235957601135083 -2.6537444998545765 -3.6987892740142585
atom 2.5200765688699205 0.1341863886180708 2.6306644920270714 Si
    velocity -3.3622197297430541 -3.8592017608401976 4.9081404586326842
atom 2.8544111008140520 2.7922543973415825 0.0521525674423772 Si
    velocity 4.6565145382610504 -0.2589617263921569 2.4251072592154208
atom 1.3094055773497064 1.5014787107396572 1.1238442657116756 Si
    velocity -2.1831164218644923 -2.5357368932081146 -5.4243898195216120
atom 1.3768789382243365 4.0097807068698126 4.0360339417042432 Si
    velocity 6.2003905013219862 0.8707957890150922 0.5431119297235489
atom 4.0704716607189351 1.2381616063717580 4.1378260894101606 Si
    velocity -5.2092729610594173 4.3943217956869152 11.1978387250598779
atom 4.0994348479666245 4.0345229546936174 1.5028876956289010 Si
    velocity 0.7006417076435375 3.6445200526060053 1.4256800104383009
