#=======================================================
# FHI-aims file: geometry.in.supercell.0700K.022
# Created using the Atomic Simulation Environment (ASE)
# Tue Jun 10 14:20:54 2025

# Additional information:
#  created from force constants
#  T = 700.0 K
#  quantum:             True
#  deterministic:       False
#  plus_minus:          False
#  gauge_eigenvectors:  False
#  Random seed:         993877198
#  Sample number:       23
#  Harmonic E_pot:        0.377eV (364.34K)
#=======================================================
lattice_vector 5.4088325884509993 0.0000000000639995 0.0000000001369997 
lattice_vector 0.0000000000629998 5.4088325742939993 0.0000000001030003 
lattice_vector 0.0000000001370002 0.0000000001020002 5.4088325742309999 
atom 0.0134345500038077 -0.0234289881763336 0.0947042629653817 Si
    velocity -2.1348756163438400 -5.8478470439240180 -0.8763743450010777
atom 0.0105585727530217 2.8247721160089880 2.6912885154574604 Si
    velocity 0.9627733368377140 7.4513398971515095 1.6371014091512857
atom 2.6654268314166680 0.0328487843060158 2.7328357005852979 Si
    velocity -10.2435619791735899 -7.2511475570379753 8.7800797888264004
atom 2.6799244790440269 2.5892903317829528 -0.2165760391457471 Si
    velocity 2.7038154017999720 3.6615471747245238 -3.0591978163142470
atom 1.4094473753891275 1.4382078263949647 1.4161083443514089 Si
    velocity 1.6857191626043100 4.8521378683066620 2.5687473244062851
atom 1.3268389989870586 4.1762592464467083 4.1177373730724138 Si
    velocity 3.7868486805479851 -0.3084110358057447 -1.8238051186855821
atom 4.1766969204481521 1.2741656068490650 4.0331155220640262 Si
    velocity 1.4843538997204409 3.6510217082094982 -3.5334781492650702
atom 3.9441700378111584 3.9143827997350091 1.3572840440707845 Si
    velocity 1.7549271140070066 -6.2086410116244553 -3.6930730931179938
