#=======================================================
# FHI-aims file: geometry.in.supercell.0700K.007
# Created using the Atomic Simulation Environment (ASE)
# Tue Jun 10 14:20:54 2025

# Additional information:
#  created from force constants
#  T = 700.0 K
#  quantum:             True
#  deterministic:       False
#  plus_minus:          False
#  gauge_eigenvectors:  False
#  Random seed:         993877198
#  Sample number:       8
#  Harmonic E_pot:        0.495eV (478.27K)
#=======================================================
lattice_vector 5.4088325884509993 0.0000000000639995 0.0000000001369997 
lattice_vector 0.0000000000629998 5.4088325742939993 0.0000000001030003 
lattice_vector 0.0000000001370002 0.0000000001020002 5.4088325742309999 
atom -0.0999862957724676 0.0266303310352665 0.0657580762172741 Si
    velocity 3.8592915688852267 1.5733741172121996 -3.0586658367492081
atom 0.0855249179144563 2.7101627782257660 2.7607390102872151 Si
    velocity -7.2653176574376372 -5.6751626505231920 -1.2152889995650635
atom 2.6494808261322458 -0.0075965432631889 2.5672290328249554 Si
    velocity -5.6550628812677068 0.8974560316541531 2.9968510071139618
atom 2.6661719055282131 2.6048939137223601 0.0167778461684153 Si
    velocity -5.5070046051621562 -0.5220366204144156 -0.6901656249477743
atom 1.3477985993081512 1.3151187505551714 1.3610571517405021 Si
    velocity 4.2171758776341015 -7.1613754216797352 -5.9565658117596163
atom 1.4428351524923080 4.1956234856011170 4.1483771621486731 Si
    velocity 2.8159109190790397 -0.8125907541082151 9.4482542455152778
atom 4.0947969626555079 1.4703146259614308 3.9865926729026877 Si
    velocity 4.0156759209379480 3.7942310135357804 0.3184283194352742
atom 4.0398756974100030 3.9113503817364705 1.3199667711226597 Si
    velocity 3.5193308573311852 7.9061042843234253 -1.8428472990428513
