#=======================================================
# FHI-aims file: geometry.in.supercell.0700K.012
# Created using the Atomic Simulation Environment (ASE)
# Tue Jun 10 14:20:54 2025

# Additional information:
#  created from force constants
#  T = 700.0 K
#  quantum:             True
#  deterministic:       False
#  plus_minus:          False
#  gauge_eigenvectors:  False
#  Random seed:         993877198
#  Sample number:       13
#  Harmonic E_pot:        0.305eV (294.69K)
#=======================================================
lattice_vector 5.4088325884509993 0.0000000000639995 0.0000000001369997 
lattice_vector 0.0000000000629998 5.4088325742939993 0.0000000001030003 
lattice_vector 0.0000000001370002 0.0000000001020002 5.4088325742309999 
atom 0.0042723080782806 -0.0248321009226661 0.0631205232674515 Si
    velocity 1.2518072885118787 3.1582067834690428 0.4224085045035349
atom -0.0697089914753031 2.8069530910769824 2.6201567365469485 Si
    velocity 3.2309026500426672 3.2705732788907924 -1.9033399841911518
atom 2.6356222679370642 0.0439846617736586 2.7209063592074925 Si
    velocity -7.8789157494383542 -1.1699475891299935 12.1720031600025802
atom 2.7560377433392378 2.6100865558019879 0.0245326442751621 Si
    velocity 4.2847427757919494 -5.9258608875609697 -2.0740622602597014
atom 1.3287103754321905 1.3635076878147963 1.4043575326661608 Si
    velocity -2.1336519558988787 5.4044554255741257 0.1869714444059086
atom 1.4041640759351903 3.9250719438716906 4.0546932921493006 Si
    velocity -4.7746921489927505 -6.1537095180387711 -1.8746630835959852
atom 4.1117087611244427 1.3239522879796408 4.0369393615566054 Si
    velocity 0.6056834057222230 -3.4564711444245413 -2.0249314565490066
atom 4.0556912253725370 4.1777735959108471 1.3017912737408677 Si
    velocity 5.4141237342612651 4.8727536512203136 -4.9043863243161798
