#=======================================================
# FHI-aims file: geometry.in.supercell.0700K.014
# Created using the Atomic Simulation Environment (ASE)
# Tue Jun 10 14:20:54 2025

# Additional information:
#  created from force constants
#  T = 700.0 K
#  quantum:             True
#  deterministic:       False
#  plus_minus:          False
#  gauge_eigenvectors:  False
#  Random seed:         993877198
#  Sample number:       15
#  Harmonic E_pot:        0.877eV (848.52K)
#=======================================================
lattice_vector 5.4088325884509993 0.0000000000639995 0.0000000001369997 
lattice_vector 0.0000000000629998 5.4088325742939993 0.0000000001030003 
lattice_vector 0.0000000001370002 0.0000000001020002 5.4088325742309999 
atom -0.1286224325429248 -0.0067628783835849 0.0159025594120830 Si
    velocity 11.5968340106811052 4.6279681427505261 -2.4346739353517681
atom 0.1548984923979737 2.8453762577050057 2.8223219755497051 Si
    velocity 3.9421139958102684 -2.1521610443495933 -1.6534444889448270
atom 2.6470762453811920 0.0076452129552662 2.7176378639956518 Si
    velocity 0.9680691693528125 0.1496735621777407 3.6104563359334381
atom 2.6637101245416202 2.5830912152871957 -0.1289406126584243 Si
    velocity -3.2817759257545362 5.0823228134118601 2.1694681620963299
atom 1.3304795633347646 1.2906635654097331 1.2596554674922824 Si
    velocity 5.3222079113329910 -4.0269442992093847 -0.0788880046485814
atom 1.3973891994575718 4.2626636383977523 4.0295981123441997 Si
    velocity -3.3883907459229539 -2.8891375262267354 -4.6585420740865606
atom 4.2168266925944984 1.4084605422178722 4.0649429127256838 Si
    velocity -11.1219806912694814 -3.8498565693487605 2.6253670128404551
atom 3.9447398806057632 3.8353601697415449 1.4453794445608774 Si
    velocity -4.0370777242302056 3.0581349207943482 0.4202569921615135
