#=======================================================
# FHI-aims file: geometry.in
# Created using the Atomic Simulation Environment (ASE)
# Tue Jun 10 14:27:23 2025
#=======================================================
lattice_vector 5.4088325884509993 0.0000000000639995 0.0000000001369997 
lattice_vector 0.0000000000629998 5.4088325742939993 0.0000000001030003 
lattice_vector 0.0000000001370002 0.0000000001020002 5.4088325742309999 
atom 0.1260832816643295 0.0015293495105748 -0.0102971158041565 Si
atom -0.0341213505832599 2.6880975447240809 2.6722563179452856 Si
atom 2.7280955571674550 -0.0052647463837204 2.7415611331061869 Si
atom 2.6120999141154613 2.6964178959501592 0.0307539921135261 Si
atom 1.3629612885869851 1.3199201352175254 1.4419105926152824 Si
atom 1.3243481300225439 4.0228907496471065 4.0582333497092655 Si
atom 4.0970615214321207 1.3733330764957079 4.0346615883970713 Si
atom 4.0099694236098005 4.1295737182902990 1.2574178653265258 Si
