#=======================================================
# FHI-aims file: geometry.in.supercell
# Created using the Atomic Simulation Environment (ASE)
# Tue May 20 19:27:06 2025

# Additional information:
#  Number of atoms:     8
#=======================================================
lattice_vector 5.6431102268527997 0.0000000000000001 0.0000000000000001 
lattice_vector 0.0000000000000001 5.6431102268527997 -0.0000000000000001 
lattice_vector -0.0000000000000001 -0.0000000000000001 5.6431102268527997 
atom 0.0000000000000000 0.0000000000000000 0.0000000000000000 Si
atom 5.6431102268527997 2.8215551134263999 2.8215551134263999 Si
atom 2.8215551134263999 0.0000000000000000 2.8215551134263999 Si
atom 2.8215551134263994 2.8215551134263999 -0.0000000000000000 Si
atom 1.4107775567131997 1.4107775567131997 1.4107775567131997 Si
atom 1.4107775567131997 4.2323326701396002 4.2323326701395994 Si
atom 4.2323326701395994 1.4107775567131999 4.2323326701395994 Si
atom 4.2323326701395994 4.2323326701396002 1.4107775567131999 Si
