#=======================================================
# FHI-aims file: geometry.in.primitive
# Created using the Atomic Simulation Environment (ASE)
# Tue May 20 19:27:06 2025

# Additional information:
#  Number of atoms:     2
#=======================================================
lattice_vector 0.0000000000000000 2.8215551134263999 2.8215551134263999 
lattice_vector 2.8215551134263999 0.0000000000000000 2.8215551134263999 
lattice_vector 2.8215551134263999 2.8215551134263999 0.0000000000000000 
atom 0.0000000000000000 0.0000000000000000 0.0000000000000000 Si
atom 1.4107775567131999 1.4107775567131999 1.4107775567131999 Si
