#=======================================================
# FHI-aims file: geometry.in.primitive
# Created using the Atomic Simulation Environment (ASE)
# Tue May 20 19:24:50 2025

# Additional information:
#  Number of atoms:     2
#=======================================================
lattice_vector 0.0000000000000000 2.6587730876518001 2.6587730876518001 
lattice_vector 2.6587730876518001 0.0000000000000000 2.6587730876518001 
lattice_vector 2.6587730876518001 2.6587730876518001 0.0000000000000000 
atom 0.0000000000000000 0.0000000000000000 0.0000000000000000 Si
atom 1.3293865438259000 1.3293865438259000 1.3293865438259000 Si
