#=======================================================
# FHI-aims file: geometry.in.supercell
# Created using the Atomic Simulation Environment (ASE)
# Tue May 20 19:24:50 2025

# Additional information:
#  Number of atoms:     8
#=======================================================
lattice_vector 5.3175461753035993 0.0000000000000001 0.0000000000000001 
lattice_vector 0.0000000000000001 5.3175461753035993 -0.0000000000000001 
lattice_vector -0.0000000000000001 -0.0000000000000001 5.3175461753035993 
atom 0.0000000000000000 0.0000000000000000 0.0000000000000000 Si
atom 5.3175461753035993 2.6587730876517996 2.6587730876517996 Si
atom 2.6587730876517996 0.0000000000000000 2.6587730876517996 Si
atom 2.6587730876517992 2.6587730876517996 -0.0000000000000000 Si
atom 1.3293865438258996 1.3293865438258998 1.3293865438258998 Si
atom 1.3293865438258996 3.9881596314776995 3.9881596314776995 Si
atom 3.9881596314776990 1.3293865438258998 3.9881596314776995 Si
atom 3.9881596314776990 3.9881596314776995 1.3293865438258998 Si
