#=======================================================
# FHI-aims file: ./geometry.in
# Created using the Atomic Simulation Environment (ASE)
# Mon Jun  9 18:40:13 2025
#=======================================================
lattice_vector 0.0000000001000000 2.7044162871980002 2.7044162871670001 
lattice_vector 2.7044162942940000 0.0000000000830000 2.7044162871839998 
lattice_vector 2.7044162942569998 2.7044162871789998 0.0000000001200000 
atom_frac 0.0026146373496617 0.0000000000050000 0.0000000000190000 Si
atom_frac 0.2499999999920001 0.2499999999950001 0.2499999999809999 Si
