lattice_vector -0.0000000000010000 2.7092527195770000 2.7092527196099998 
lattice_vector 2.7092527573520000 -0.0000000000100000 2.7092527196190002 
lattice_vector 2.7092527573290002 2.7092527195630001 0.0000000000130000 
atom_frac -0.0000000000140000 -0.0000000000070000 0.0000000000180000 Si
atom_frac 0.2500000000140000 0.2500000000070001 0.2499999999820000 Si

