#=======================================================
# FHI-aims file: geometry.in
# Created using the Atomic Simulation Environment (ASE)
# Tue Jun 10 15:20:26 2025
#=======================================================
lattice_vector 5.4088325884509993 0.0000000000639995 0.0000000001369997 
lattice_vector 0.0000000000629998 5.4088325742939993 0.0000000001030003 
lattice_vector 0.0000000001370002 0.0000000001020002 5.4088325742309999 
atom 0.2038174475852351 -0.0014693073169674 0.1673766781803416 Si
atom -0.0792113426820668 2.5646176976069976 2.7182896680748403 Si
atom 2.6566944885111297 0.0708135586117871 2.7182487145158403 Si
atom 2.6135754803270714 2.8386191404998566 -0.1257908755800620 Si
atom 1.4826982585385771 1.4542722297561046 1.3673699355965465 Si
atom 1.1662977685328599 4.0425503264254630 3.9755609835912535 Si
atom 4.0228106729358633 1.2275967700308681 4.1224042462499044 Si
atom 4.1598149921668757 4.0294973075981000 1.2830383727807295 Si
