#=======================================================
# FHI-aims file: geometry.in.supercell.0300K.006
# Created using the Atomic Simulation Environment (ASE)
# Tue Jun 10 14:20:51 2025

# Additional information:
#  created from force constants
#  T = 300.0 K
#  quantum:             True
#  deterministic:       False
#  plus_minus:          False
#  gauge_eigenvectors:  False
#  Random seed:         35862534
#  Sample number:       7
#  Harmonic E_pot:        0.548eV (529.58K)
#=======================================================
lattice_vector 5.4088325884509993 0.0000000000639995 0.0000000001369997 
lattice_vector 0.0000000000629998 5.4088325742939993 0.0000000001030003 
lattice_vector 0.0000000001370002 0.0000000001020002 5.4088325742309999 
atom 0.0705673488798231 -0.0832266451722990 0.0526295531769991 Si
    velocity -4.4757161652261912 -3.1928680654800110 4.4953770629414720
atom 0.0531012291912409 2.7160211890254304 2.6538004903015344 Si
    velocity -1.7288028069602719 -4.8769985901420636 1.6189629933230496
atom 2.5823293839913330 0.0193935271957487 2.7679427142536452 Si
    velocity 2.5412867302295608 6.6650710887438871 -0.0879974246207401
atom 2.7307104931676998 2.7466489425416047 -0.1483035091102100 Si
    velocity 2.5875153191206963 -1.7915487535409553 -0.2192690524102361
atom 1.3082488887163803 1.4467788994490480 1.3004225366036337 Si
    velocity -2.1623523599597219 3.8370587094487991 -1.8747706309601964
atom 1.2616442032274424 4.0072388932515715 4.1549311878811164 Si
    velocity 2.0614960598774523 -2.8726825042759407 -3.5229244651774949
atom 4.2242802665179466 1.2746544591719524 4.0898847604472515 Si
    velocity -2.5311239474856362 0.3570516178143092 -0.8270702883761649
atom 3.9956159523419856 4.0989884579521041 1.3551899898742974 Si
    velocity 3.7076971704041113 1.8749164974319739 0.4176918052803103
