#=======================================================
# FHI-aims file: geometry.in.supercell.0300K.003
# Created using the Atomic Simulation Environment (ASE)
# Tue Jun 10 14:20:51 2025

# Additional information:
#  created from force constants
#  T = 300.0 K
#  quantum:             True
#  deterministic:       False
#  plus_minus:          False
#  gauge_eigenvectors:  False
#  Random seed:         35862534
#  Sample number:       4
#  Harmonic E_pot:        0.471eV (455.49K)
#=======================================================
lattice_vector 5.4088325884509993 0.0000000000639995 0.0000000001369997 
lattice_vector 0.0000000000629998 5.4088325742939993 0.0000000001030003 
lattice_vector 0.0000000001370002 0.0000000001020002 5.4088325742309999 
atom -0.0105442903623693 0.1784511300199935 -0.0630743185163493 Si
    velocity 3.9980997727436511 -0.4845820329727359 0.8887285717799490
atom -0.0644116107435882 2.8252412858636085 2.8327921483932612 Si
    velocity 0.8845964065646826 -0.6469788656421414 -2.3174268028967542
atom 2.8423767734714094 -0.1017353585496183 2.6780066178515041 Si
    velocity -0.2419278324574378 -0.4357410650537921 -3.5122076868312293
atom 2.6091309279916630 2.5287804794294910 -0.0291397449950482 Si
    velocity 0.5246604791106685 -1.1658961468246722 7.7935137081190886
atom 1.2780484649861392 1.2937507780590807 1.4931558049165310 Si
    velocity -3.3545831150123542 2.0343845683346866 -2.4108367549839205
atom 1.3813066580346915 4.0920359935469426 4.0728766905656428 Si
    velocity -0.0593690748379785 5.6931375405191380 1.1254032849329221
atom 4.0406601141450036 1.3960831825012350 4.0368815152415989 Si
    velocity 3.3383767712102577 -0.3961549635607171 -1.0569250616471462
atom 4.1499307283352271 4.0138902324432237 1.2049990099389791 Si
    velocity -5.0898534073214901 -4.5981690347997661 -0.5102492584729093
