#=======================================================
# FHI-aims file: geometry.in.supercell.0300K.020
# Created using the Atomic Simulation Environment (ASE)
# Tue Jun 10 14:20:51 2025

# Additional information:
#  created from force constants
#  T = 300.0 K
#  quantum:             True
#  deterministic:       False
#  plus_minus:          False
#  gauge_eigenvectors:  False
#  Random seed:         35862534
#  Sample number:       21
#  Harmonic E_pot:        0.144eV (139.33K)
#=======================================================
lattice_vector 5.4088325884509993 0.0000000000639995 0.0000000001369997 
lattice_vector 0.0000000000629998 5.4088325742939993 0.0000000001030003 
lattice_vector 0.0000000001370002 0.0000000001020002 5.4088325742309999 
atom 0.0307068218657094 0.1085191851318157 0.0125025020108418 Si
    velocity 1.9454626886923985 -1.8979843590723855 -1.1515362729790550
atom -0.0296236063963049 2.6201309035986622 2.6850543284606729 Si
    velocity -4.5319720337979232 1.1807750294860484 0.1709139860488083
atom 2.7550640797236086 -0.0855513220773171 2.7254619893885157 Si
    velocity -3.1951903051328663 5.1278978808464766 1.1914732144959326
atom 2.6659101725565315 2.7854496652971763 -0.0358794151986162 Si
    velocity -0.5194131104035233 -5.5934275399003930 0.2162781095665527
atom 1.4449243369204983 1.3940904825973117 1.3623907161134217 Si
    velocity 1.7271921375045014 -2.5514001514648110 -0.0001012391117894
atom 1.2258099538623610 4.0158521437070007 4.0157264957507151 Si
    velocity -0.8869259502259201 1.1071113020309467 2.0805927798146380
atom 3.9999685100233995 1.3192619125444867 4.1086966318178222 Si
    velocity 0.1446776938156735 5.8747944971563264 -4.4654162320273416
atom 4.1337374974303316 4.0687447525290930 1.3525444750679170 Si
    velocity 5.3161688795476589 -3.2477666590822079 1.9577956541922543
