#=======================================================
# FHI-aims file: geometry.in.supercell.0300K.029
# Created using the Atomic Simulation Environment (ASE)
# Tue Jun 10 14:20:51 2025

# Additional information:
#  created from force constants
#  T = 300.0 K
#  quantum:             True
#  deterministic:       False
#  plus_minus:          False
#  gauge_eigenvectors:  False
#  Random seed:         35862534
#  Sample number:       30
#  Harmonic E_pot:        0.152eV (147.16K)
#=======================================================
lattice_vector 5.4088325884509993 0.0000000000639995 0.0000000001369997 
lattice_vector 0.0000000000629998 5.4088325742939993 0.0000000001030003 
lattice_vector 0.0000000001370002 0.0000000001020002 5.4088325742309999 
atom -0.0668640022242113 -0.0173090721181305 -0.0713442947565762 Si
    velocity -1.3063229732598316 -2.0342325832727086 -0.4696446814135046
atom 0.0527647025826931 2.6951489838350389 2.6545661112385055 Si
    velocity -1.1478326972044146 4.5777160327897981 -1.6512597400639137
atom 2.6441481294226494 0.0156687029612026 2.7283312710690790 Si
    velocity 1.0844675961852044 -3.5896804341225130 -1.6864994762821828
atom 2.7175368032849496 2.6856479590222104 0.0756031473152969 Si
    velocity -5.5673722493468132 -1.2289360361203727 4.5114501742397408
atom 1.3247995909307142 1.3156687872937229 1.2359483041622346 Si
    velocity 7.3280943977334232 2.2764683813236415 -0.6139337695795442
atom 1.3958580578204021 3.9884603372859693 4.1152310779047614 Si
    velocity 1.0285834570185250 0.7015174608312630 -3.6637235145370060
atom 4.0850747083445604 1.4162777231580730 4.0398505360857815 Si
    velocity 1.8203734074036364 2.5858054807510675 1.3442143384070555
atom 4.0731797756368184 4.1269343020212430 1.4483115703983449 Si
    velocity -3.2399909385297287 -3.2886583021801759 2.2293966692293559
