#=======================================================
# FHI-aims file: geometry.in
# Created using the Atomic Simulation Environment (ASE)
# Tue Jun 10 14:37:24 2025
#=======================================================
lattice_vector 5.4088325884509993 0.0000000000639995 0.0000000001369997 
lattice_vector 0.0000000000629998 5.4088325742939993 0.0000000001030003 
lattice_vector 0.0000000001370002 0.0000000001020002 5.4088325742309999 
atom -0.0552451932631539 0.0740945504393784 0.0050535634684892 Si
atom 0.0372396443811672 2.7311029598696992 2.6579789857739495 Si
atom 2.6908749077739080 0.0265824406969966 2.8057253158916207 Si
atom 2.7651337982846922 2.5998315287464351 -0.0784469704757841 Si
atom 1.3274211542296444 1.3509249405579129 1.3226357504047801 Si
atom 1.3928777970709165 4.0024786070598566 4.1468306247999358 Si
atom 4.0521412653519571 1.3501168164674886 3.9244700189277317 Si
atom 4.0160543922140084 4.0913658794888148 1.4422504346343197 Si
