#=======================================================
# FHI-aims file: geometry.in
# Created using the Atomic Simulation Environment (ASE)
# Tue Jun 10 15:02:15 2025
#=======================================================
lattice_vector 5.4088325884509993 0.0000000000639995 0.0000000001369997 
lattice_vector 0.0000000000629998 5.4088325742939993 0.0000000001030003 
lattice_vector 0.0000000001370002 0.0000000001020002 5.4088325742309999 
atom -0.1637466064257690 -0.0263355193379171 -0.2515370700484839 Si
atom 0.0237917175673921 2.8181549901902061 2.5786347316574845 Si
atom 2.8122722724873368 0.0000622119860769 2.8501259821426852 Si
atom 2.6404278636915564 2.5794912802551817 0.1202350155343340 Si
atom 1.3243946618419424 1.1451937028178734 1.4438274645528109 Si
atom 1.3952439935637262 4.0098712837249728 4.1373315460401843 Si
atom 4.2089303507870399 1.5043368384256137 4.0832028630131312 Si
atom 3.9851835121956443 4.1957229354140733 1.2646771905155427 Si
