#=======================================================
# FHI-aims file: ./geometry.in
# Created using the Atomic Simulation Environment (ASE)
# Tue Jun 10 15:18:36 2025
#=======================================================
lattice_vector 5.4088325884509993 0.0000000000639995 0.0000000001369997 
lattice_vector 0.0000000000629998 5.4088325742939993 0.0000000001030003 
lattice_vector 0.0000000001370002 0.0000000001020002 5.4088325742309999 
atom_frac -0.0096856504464031 -0.0089555224694831 -0.0063349551056754 Si
atom_frac 0.0334854191631349 0.4919236326419451 0.4715629036065430 Si
atom_frac 0.4684533040315757 0.0117736706909482 0.5106028639514535 Si
atom_frac 0.5311363258802453 0.5100625985872342 0.0040195971323525 Si
atom_frac 0.2530941358791292 0.2581919210650863 0.2291806835259806 Si
atom_frac 0.2518554585173098 0.7374889928198805 0.7793464887345734 Si
atom_frac 0.7488932347316281 0.2349598981528532 0.7456217783418396 Si
atom_frac 0.7227677723076469 0.7645548085015861 0.2660006398179177 Si
