#=======================================================
# FHI-aims file: geometry.in
# Created using the Atomic Simulation Environment (ASE)
# Tue Jun 10 15:21:44 2025
#=======================================================
lattice_vector 5.4088325884509993 0.0000000000639995 0.0000000001369997 
lattice_vector 0.0000000000629998 5.4088325742939993 0.0000000001030003 
lattice_vector 0.0000000001370002 0.0000000001020002 5.4088325742309999 
atom -0.1587151991344140 -0.1780829208388015 0.0275752730344520 Si
atom 0.1540343412652280 2.8816524255610934 2.8372610380008401 Si
atom 2.7232921664427518 0.2441092009667674 2.5930829154330342 Si
atom 2.6514272487166184 2.5272208186234639 -0.0381531393394659 Si
atom 1.1743886734479700 1.3355260379384939 1.3031375893729416 Si
atom 1.5145359032925594 4.1765563150862981 4.0794495221293179 Si
atom 4.1994348985428225 1.4375549290967367 3.9925232335634133 Si
atom 3.9680997332743155 3.8019609167736919 1.4316212912210968 Si
