#=======================================================
# FHI-aims file: geometry.in
# Created using the Atomic Simulation Environment (ASE)
# Tue Jun 10 14:26:45 2025
#=======================================================
lattice_vector 5.4088325884509993 0.0000000000639995 0.0000000001369997 
lattice_vector 0.0000000000629998 5.4088325742939993 0.0000000001030003 
lattice_vector 0.0000000001370002 0.0000000001020002 5.4088325742309999 
atom -0.0422544668584786 0.0253302653986687 -0.0388712523621607 Si
atom 0.0522818390955032 2.6731627432079521 2.6490947570001104 Si
atom 2.7094762070053879 -0.0412175404071114 2.7263197154263974 Si
atom 2.7251409984823800 2.7226334342456933 0.0111883670826908 Si
atom 1.3222280677570786 1.3356648998364968 1.3765980273344252 Si
atom 1.3855537894585548 4.0859068512544114 4.0860924958117035 Si
atom 4.0729560613486049 1.3786964277028486 4.0521723074154901 Si
atom 4.0011152697585679 4.0463206422193094 1.3639033057088805 Si
