#=======================================================
# FHI-aims file: ./geometry.in
# Created using the Atomic Simulation Environment (ASE)
# Tue Jun 10 14:39:34 2025
#=======================================================
lattice_vector 5.4088325884509993 0.0000000000639995 0.0000000001369997 
lattice_vector 0.0000000000629998 5.4088325742939993 0.0000000001030003 
lattice_vector 0.0000000001370002 0.0000000001020002 5.4088325742309999 
atom_frac -0.0090431145894775 0.0192068558699707 0.0109495696920614 Si
atom_frac -0.0056667294286309 0.4737192447113512 0.4897741364914917 Si
atom_frac 0.5061889954042347 -0.0034715985486427 0.5073828632732659 Si
atom_frac 0.5049107310888236 0.5170799289993372 -0.0003942599489024 Si
atom_frac 0.2864889606992935 0.2535986267187287 0.2312706913420157 Si
atom_frac 0.2164909868572968 0.7222889531443272 0.7530847009737024 Si
atom_frac 0.7327193842542576 0.2559530163578954 0.7498895609088122 Si
atom_frac 0.7679107857070008 0.7616249727305298 0.2580427372686456 Si
