#=======================================================
# FHI-aims file: geometry.in
# Created using the Atomic Simulation Environment (ASE)
# Tue Jun 10 14:39:57 2025
#=======================================================
lattice_vector 5.4088325884509993 0.0000000000639995 0.0000000001369997 
lattice_vector 0.0000000000629998 5.4088325742939993 0.0000000001030003 
lattice_vector 0.0000000001370002 0.0000000001020002 5.4088325742309999 
atom -0.0105442903623693 0.1784511300199935 -0.0630743185163493 Si
atom -0.0644116107435882 2.8252412858636085 2.8327921483932612 Si
atom 2.8423767734714094 -0.1017353585496183 2.6780066178515041 Si
atom 2.6091309279916630 2.5287804794294910 -0.0291397449950482 Si
atom 1.2780484649861392 1.2937507780590807 1.4931558049165310 Si
atom 1.3813066580346915 4.0920359935469426 4.0728766905656428 Si
atom 4.0406601141450036 1.3960831825012350 4.0368815152415989 Si
atom 4.1499307283352271 4.0138902324432237 1.2049990099389791 Si
