#=======================================================
# FHI-aims file: geometry.in
# Created using the Atomic Simulation Environment (ASE)
# Tue Jun 10 14:50:20 2025
#=======================================================
lattice_vector 5.4088325884509993 0.0000000000639995 0.0000000001369997 
lattice_vector 0.0000000000629998 5.4088325742939993 0.0000000001030003 
lattice_vector 0.0000000001370002 0.0000000001020002 5.4088325742309999 
atom 0.0441303054183550 0.0960892659804419 -0.0667948962280300 Si
atom 0.0303036940872450 2.6533801426838521 2.6487012401238013 Si
atom 2.7060373282436037 -0.1997670433539480 2.8102533001889349 Si
atom 2.6812895638428929 2.8049705676965790 -0.0186404100372961 Si
atom 1.4497901835402107 1.2294387951344705 1.3555682186146849 Si
atom 1.1665498043716021 4.0293462295045082 4.0486241649699330 Si
atom 3.9985222764965607 1.4433708747838145 4.1117085584985684 Si
atom 4.1498746100961759 4.1696688910949780 1.3370775472870298 Si
