#=======================================================
# FHI-aims file: ./geometry.in
# Created using the Atomic Simulation Environment (ASE)
# Wed Aug  5 14:10:16 2020
#=======================================================
lattice_vector 21.6740220587279993 -0.0000000000960008 0.0000000000880008 
lattice_vector -0.0000000000959991 21.6740217565999984 0.0000000000159992 
lattice_vector 0.0000000000879984 0.0000000000160008 21.6740217568639970 
atom_frac 0.0004613818331783 0.0000000000005000 0.9999999999973750 Si
atom_frac 0.0000000000013750 0.1250000000005000 0.1249999999973750 Si
atom_frac 0.0000000000013750 0.2500000000005000 0.2499999999973750 Si
atom_frac 0.0000000000013750 0.3750000000004999 0.3749999999973749 Si
atom_frac 0.0000000000013750 0.5000000000004999 0.4999999999973749 Si
atom_frac 0.0000000000013750 0.6250000000004999 0.6249999999973750 Si
atom_frac 0.0000000000013750 0.7500000000004997 0.7499999999973748 Si
atom_frac 0.0000000000013750 0.8750000000004998 0.8749999999973751 Si
atom_frac 0.1250000000013750 0.0000000000005000 0.1249999999973750 Si
atom_frac 0.1250000000013750 0.1250000000005000 0.2499999999973750 Si
atom_frac 0.1250000000013750 0.2500000000005000 0.3749999999973750 Si
atom_frac 0.1250000000013750 0.3750000000004998 0.4999999999973749 Si
atom_frac 0.1250000000013750 0.5000000000004998 0.6249999999973749 Si
atom_frac 0.1250000000013750 0.6250000000004998 0.7499999999973749 Si
atom_frac 0.1250000000013750 0.7500000000004999 0.8749999999973749 Si
atom_frac 0.1250000000013750 0.8750000000004999 0.9999999999973749 Si
atom_frac 0.2500000000013750 0.0000000000005000 0.2499999999973750 Si
atom_frac 0.2500000000013750 0.1250000000005000 0.3749999999973750 Si
atom_frac 0.2500000000013750 0.2500000000004999 0.4999999999973749 Si
atom_frac 0.2500000000013750 0.3750000000004999 0.6249999999973749 Si
atom_frac 0.2500000000013750 0.5000000000004999 0.7499999999973751 Si
atom_frac 0.2500000000013751 0.6250000000004999 0.8749999999973751 Si
atom_frac 0.2500000000013750 0.7500000000004997 0.9999999999973747 Si
atom_frac 0.2500000000013749 0.8750000000004998 0.1249999999973750 Si
atom_frac 0.3750000000013749 0.0000000000005000 0.3749999999973749 Si
atom_frac 0.3750000000013749 0.1250000000005000 0.4999999999973749 Si
atom_frac 0.3750000000013749 0.2500000000005000 0.6249999999973750 Si
atom_frac 0.3750000000013749 0.3750000000004999 0.7499999999973748 Si
atom_frac 0.3750000000013749 0.5000000000005000 0.8749999999973749 Si
atom_frac 0.3750000000013749 0.6250000000004999 0.9999999999973749 Si
atom_frac 0.3750000000013749 0.7500000000004997 0.1249999999973748 Si
atom_frac 0.3750000000013749 0.8750000000004998 0.2499999999973750 Si
atom_frac 0.5000000000013749 0.0000000000005000 0.4999999999973749 Si
atom_frac 0.5000000000013750 0.1250000000005000 0.6249999999973749 Si
atom_frac 0.5000000000013750 0.2500000000005000 0.7499999999973749 Si
atom_frac 0.5000000000013749 0.3750000000004999 0.8749999999973749 Si
atom_frac 0.5000000000013749 0.5000000000004999 0.9999999999973749 Si
atom_frac 0.5000000000013749 0.6250000000004999 0.1249999999973750 Si
atom_frac 0.5000000000013750 0.7500000000004997 0.2499999999973747 Si
atom_frac 0.5000000000013749 0.8750000000004999 0.3749999999973750 Si
atom_frac 0.6250000000013750 0.0000000000005000 0.6249999999973749 Si
atom_frac 0.6250000000013750 0.1250000000005000 0.7499999999973751 Si
atom_frac 0.6250000000013749 0.2500000000004999 0.8749999999973751 Si
atom_frac 0.6250000000013750 0.3750000000004999 0.9999999999973750 Si
atom_frac 0.6250000000013749 0.5000000000004999 0.1249999999973750 Si
atom_frac 0.6250000000013749 0.6250000000004999 0.2499999999973750 Si
atom_frac 0.6250000000013749 0.7500000000004999 0.3749999999973747 Si
atom_frac 0.6250000000013749 0.8750000000004999 0.4999999999973750 Si
atom_frac 0.7500000000013751 0.0000000000005000 0.7499999999973749 Si
atom_frac 0.7500000000013751 0.1250000000005000 0.8749999999973751 Si
atom_frac 0.7500000000013751 0.2500000000005000 0.9999999999973750 Si
atom_frac 0.7500000000013751 0.3750000000004999 0.1249999999973750 Si
atom_frac 0.7500000000013751 0.5000000000004999 0.2499999999973750 Si
atom_frac 0.7500000000013751 0.6250000000004998 0.3749999999973750 Si
atom_frac 0.7500000000013751 0.7500000000004997 0.4999999999973749 Si
atom_frac 0.7500000000013751 0.8750000000004998 0.6249999999973749 Si
atom_frac 0.8750000000013749 0.0000000000005000 0.8749999999973749 Si
atom_frac 0.8750000000013749 0.1250000000005000 0.9999999999973749 Si
atom_frac 0.8750000000013749 0.2500000000005000 0.1249999999973750 Si
atom_frac 0.8750000000013749 0.3750000000004999 0.2499999999973750 Si
atom_frac 0.8750000000013749 0.5000000000004999 0.3749999999973750 Si
atom_frac 0.8750000000013749 0.6250000000004999 0.4999999999973749 Si
atom_frac 0.8750000000013749 0.7500000000004996 0.6249999999973747 Si
atom_frac 0.8750000000013749 0.8750000000004998 0.7499999999973751 Si
atom_frac 0.1250000000013750 0.1250000000005000 0.9999999999973750 Si
atom_frac 0.1250000000013750 0.2500000000005000 0.1249999999973750 Si
atom_frac 0.1250000000013750 0.3750000000005000 0.2499999999973750 Si
atom_frac 0.1250000000013750 0.5000000000004997 0.3749999999973749 Si
atom_frac 0.1250000000013750 0.6250000000004997 0.4999999999973749 Si
atom_frac 0.1250000000013750 0.7500000000004999 0.6249999999973749 Si
atom_frac 0.1250000000013750 0.8750000000004998 0.7499999999973748 Si
atom_frac 0.1250000000013749 0.0000000000005000 0.8749999999973751 Si
atom_frac 0.2500000000013751 0.1250000000005000 0.1249999999973750 Si
atom_frac 0.2500000000013750 0.2500000000004999 0.2499999999973750 Si
atom_frac 0.2500000000013750 0.3750000000005000 0.3749999999973750 Si
atom_frac 0.2500000000013750 0.5000000000004999 0.4999999999973750 Si
atom_frac 0.2500000000013751 0.6250000000004999 0.6249999999973750 Si
atom_frac 0.2500000000013750 0.7500000000004997 0.7499999999973749 Si
atom_frac 0.2500000000013750 0.8750000000004996 0.8749999999973749 Si
atom_frac 0.2500000000013750 0.0000000000005000 0.9999999999973749 Si
atom_frac 0.3750000000013751 0.1250000000005000 0.2499999999973749 Si
atom_frac 0.3750000000013750 0.2500000000005000 0.3749999999973750 Si
atom_frac 0.3750000000013749 0.3750000000005000 0.4999999999973749 Si
atom_frac 0.3750000000013750 0.5000000000004999 0.6249999999973749 Si
atom_frac 0.3750000000013749 0.6250000000004999 0.7499999999973751 Si
atom_frac 0.3750000000013749 0.7500000000004999 0.8749999999973751 Si
atom_frac 0.3750000000013749 0.8750000000004998 0.9999999999973747 Si
atom_frac 0.3750000000013749 0.0000000000005000 0.1249999999973750 Si
atom_frac 0.5000000000013750 0.1250000000005000 0.3749999999973749 Si
atom_frac 0.5000000000013749 0.2500000000004999 0.4999999999973749 Si
atom_frac 0.5000000000013750 0.3750000000005000 0.6249999999973749 Si
atom_frac 0.5000000000013750 0.5000000000004999 0.7499999999973748 Si
atom_frac 0.5000000000013748 0.6250000000004999 0.8749999999973748 Si
atom_frac 0.5000000000013749 0.7500000000004997 0.9999999999973747 Si
atom_frac 0.5000000000013750 0.8750000000004998 0.1249999999973748 Si
atom_frac 0.5000000000013750 0.0000000000005000 0.2499999999973750 Si
atom_frac 0.6250000000013749 0.1250000000005000 0.4999999999973749 Si
atom_frac 0.6250000000013750 0.2500000000005000 0.6249999999973749 Si
atom_frac 0.6250000000013750 0.3750000000005000 0.7499999999973749 Si
atom_frac 0.6250000000013749 0.5000000000005000 0.8749999999973749 Si
atom_frac 0.6250000000013749 0.6250000000004999 0.9999999999973749 Si
atom_frac 0.6250000000013749 0.7500000000004999 0.1249999999973750 Si
atom_frac 0.6250000000013750 0.8750000000004998 0.2499999999973748 Si
atom_frac 0.6250000000013749 0.0000000000005000 0.3749999999973750 Si
atom_frac 0.7500000000013751 0.1250000000005000 0.6249999999973749 Si
atom_frac 0.7500000000013751 0.2500000000005000 0.7499999999973751 Si
atom_frac 0.7500000000013749 0.3750000000005000 0.8749999999973751 Si
atom_frac 0.7500000000013748 0.5000000000004998 0.9999999999973750 Si
atom_frac 0.7500000000013749 0.6250000000004999 0.1249999999973750 Si
atom_frac 0.7500000000013749 0.7500000000004999 0.2499999999973750 Si
atom_frac 0.7500000000013749 0.8750000000004996 0.3749999999973747 Si
atom_frac 0.7500000000013751 0.0000000000005000 0.4999999999973749 Si
atom_frac 0.8750000000013750 0.1250000000005000 0.7499999999973749 Si
atom_frac 0.8750000000013750 0.2500000000004999 0.8749999999973749 Si
atom_frac 0.8750000000013750 0.3750000000005000 0.9999999999973747 Si
atom_frac 0.8750000000013749 0.5000000000004999 0.1249999999973750 Si
atom_frac 0.8750000000013750 0.6250000000004999 0.2499999999973750 Si
atom_frac 0.8750000000013750 0.7500000000004999 0.3749999999973750 Si
atom_frac 0.8750000000013750 0.8750000000004998 0.4999999999973750 Si
atom_frac 0.8750000000013750 0.0000000000005000 0.6249999999973749 Si
atom_frac 0.0000000000013749 0.1250000000005000 0.8749999999973749 Si
atom_frac 0.0000000000013749 0.2500000000005000 0.9999999999973749 Si
atom_frac 0.0000000000013749 0.3750000000005000 0.1249999999973750 Si
atom_frac 0.0000000000013749 0.5000000000004999 0.2499999999973749 Si
atom_frac 0.0000000000013749 0.6250000000004998 0.3749999999973750 Si
atom_frac 0.0000000000013749 0.7500000000004999 0.4999999999973749 Si
atom_frac 0.0000000000013749 0.8750000000004998 0.6249999999973748 Si
atom_frac 0.0000000000013749 0.0000000000005000 0.7499999999973749 Si
atom_frac 0.2500000000013750 0.2500000000004999 0.9999999999973750 Si
atom_frac 0.2500000000013750 0.3750000000005000 0.1249999999973750 Si
atom_frac 0.2500000000013750 0.5000000000005000 0.2499999999973750 Si
atom_frac 0.2500000000013750 0.6250000000004998 0.3749999999973750 Si
atom_frac 0.2500000000013750 0.7500000000004997 0.4999999999973749 Si
atom_frac 0.2500000000013750 0.8750000000004998 0.6249999999973749 Si
atom_frac 0.2500000000013750 0.0000000000004998 0.7499999999973748 Si
atom_frac 0.2500000000013750 0.1250000000005000 0.8749999999973751 Si
atom_frac 0.3750000000013749 0.2500000000005000 0.1249999999973750 Si
atom_frac 0.3750000000013750 0.3750000000004999 0.2499999999973750 Si
atom_frac 0.3750000000013750 0.5000000000005000 0.3749999999973750 Si
atom_frac 0.3750000000013749 0.6250000000004999 0.4999999999973749 Si
atom_frac 0.3750000000013749 0.7500000000004999 0.6249999999973749 Si
atom_frac 0.3750000000013749 0.8750000000004998 0.7499999999973751 Si
atom_frac 0.3750000000013749 0.0000000000004998 0.8749999999973749 Si
atom_frac 0.3750000000013750 0.1250000000005000 0.9999999999973749 Si
atom_frac 0.5000000000013750 0.2500000000004999 0.2499999999973750 Si
atom_frac 0.5000000000013749 0.3750000000005000 0.3749999999973750 Si
atom_frac 0.5000000000013749 0.5000000000004999 0.4999999999973750 Si
atom_frac 0.5000000000013749 0.6250000000004999 0.6249999999973750 Si
atom_frac 0.5000000000013750 0.7500000000004999 0.7499999999973749 Si
atom_frac 0.5000000000013749 0.8750000000004999 0.8749999999973751 Si
atom_frac 0.5000000000013749 0.0000000000004998 0.9999999999973747 Si
atom_frac 0.5000000000013750 0.1250000000005000 0.1249999999973750 Si
atom_frac 0.6250000000013749 0.2500000000005000 0.3749999999973750 Si
atom_frac 0.6250000000013749 0.3750000000004999 0.4999999999973749 Si
atom_frac 0.6250000000013750 0.5000000000005000 0.6249999999973749 Si
atom_frac 0.6250000000013749 0.6250000000004999 0.7499999999973749 Si
atom_frac 0.6250000000013749 0.7500000000004999 0.8749999999973749 Si
atom_frac 0.6250000000013750 0.8750000000004999 0.9999999999973749 Si
atom_frac 0.6250000000013749 0.0000000000004998 0.1249999999973747 Si
atom_frac 0.6250000000013750 0.1250000000005000 0.2499999999973750 Si
atom_frac 0.7500000000013751 0.2500000000005000 0.4999999999973749 Si
atom_frac 0.7500000000013751 0.3750000000005000 0.6249999999973749 Si
atom_frac 0.7500000000013749 0.5000000000005000 0.7499999999973751 Si
atom_frac 0.7500000000013749 0.6250000000004999 0.8749999999973749 Si
atom_frac 0.7500000000013749 0.7500000000004999 0.9999999999973749 Si
atom_frac 0.7500000000013749 0.8750000000004998 0.1249999999973750 Si
atom_frac 0.7500000000013749 0.0000000000004998 0.2499999999973748 Si
atom_frac 0.7500000000013749 0.1250000000005000 0.3749999999973750 Si
atom_frac 0.8750000000013751 0.2500000000005000 0.6249999999973750 Si
atom_frac 0.8750000000013749 0.3750000000004999 0.7499999999973749 Si
atom_frac 0.8750000000013747 0.5000000000005000 0.8749999999973751 Si
atom_frac 0.8750000000013749 0.6250000000004999 0.9999999999973750 Si
atom_frac 0.8750000000013749 0.7500000000004999 0.1249999999973750 Si
atom_frac 0.8750000000013749 0.8750000000004998 0.2499999999973750 Si
atom_frac 0.8750000000013749 0.0000000000004998 0.3749999999973747 Si
atom_frac 0.8750000000013749 0.1250000000005000 0.4999999999973750 Si
atom_frac 0.0000000000013749 0.2500000000005000 0.7499999999973749 Si
atom_frac 0.0000000000013749 0.3750000000005000 0.8749999999973749 Si
atom_frac 0.0000000000013749 0.5000000000004999 0.9999999999973749 Si
atom_frac 0.0000000000013749 0.6250000000004999 0.1249999999973750 Si
atom_frac 0.0000000000013749 0.7500000000004999 0.2499999999973750 Si
atom_frac 0.0000000000013749 0.8750000000004998 0.3749999999973750 Si
atom_frac 0.0000000000013749 0.0000000000004998 0.4999999999973749 Si
atom_frac 0.0000000000013749 0.1250000000005000 0.6249999999973749 Si
atom_frac 0.1250000000013749 0.2500000000004999 0.8749999999973749 Si
atom_frac 0.1250000000013749 0.3750000000004999 0.9999999999973749 Si
atom_frac 0.1250000000013749 0.5000000000005000 0.1249999999973750 Si
atom_frac 0.1250000000013749 0.6250000000004998 0.2499999999973750 Si
atom_frac 0.1250000000013749 0.7500000000004999 0.3749999999973750 Si
atom_frac 0.1250000000013749 0.8750000000004999 0.4999999999973750 Si
atom_frac 0.1250000000013749 0.0000000000004998 0.6249999999973747 Si
atom_frac 0.1250000000013749 0.1250000000005000 0.7499999999973751 Si
atom_frac 0.3750000000013749 0.3750000000004999 0.9999999999973749 Si
atom_frac 0.3750000000013749 0.5000000000004999 0.1249999999973750 Si
atom_frac 0.3750000000013749 0.6250000000004999 0.2499999999973750 Si
atom_frac 0.3750000000013749 0.7500000000004999 0.3749999999973749 Si
atom_frac 0.3750000000013749 0.8750000000004998 0.4999999999973749 Si
atom_frac 0.3750000000013749 0.0000000000004998 0.6249999999973749 Si
atom_frac 0.3750000000013749 0.1250000000004998 0.7499999999973748 Si
atom_frac 0.3750000000013749 0.2500000000004998 0.8749999999973749 Si
atom_frac 0.5000000000013750 0.3750000000004999 0.1249999999973750 Si
atom_frac 0.5000000000013750 0.5000000000004999 0.2499999999973750 Si
atom_frac 0.5000000000013748 0.6250000000004998 0.3749999999973750 Si
atom_frac 0.5000000000013749 0.7500000000004997 0.4999999999973749 Si
atom_frac 0.5000000000013750 0.8750000000004999 0.6249999999973749 Si
atom_frac 0.5000000000013750 0.0000000000004998 0.7499999999973749 Si
atom_frac 0.5000000000013749 0.1250000000004998 0.8749999999973749 Si
atom_frac 0.5000000000013750 0.2500000000004998 0.9999999999973749 Si
atom_frac 0.6250000000013750 0.3750000000004999 0.2499999999973750 Si
atom_frac 0.6250000000013749 0.5000000000004999 0.3749999999973750 Si
atom_frac 0.6250000000013748 0.6250000000004999 0.4999999999973749 Si
atom_frac 0.6250000000013750 0.7500000000004999 0.6249999999973749 Si
atom_frac 0.6250000000013750 0.8750000000004999 0.7499999999973749 Si
atom_frac 0.6250000000013749 0.0000000000004998 0.8749999999973751 Si
atom_frac 0.6250000000013750 0.1250000000004998 0.9999999999973747 Si
atom_frac 0.6250000000013749 0.2500000000004998 0.1249999999973750 Si
atom_frac 0.7500000000013751 0.3750000000004999 0.3749999999973749 Si
atom_frac 0.7500000000013749 0.5000000000004999 0.4999999999973749 Si
atom_frac 0.7500000000013751 0.6250000000004999 0.6249999999973750 Si
atom_frac 0.7500000000013751 0.7500000000004999 0.7499999999973749 Si
atom_frac 0.7500000000013748 0.8750000000004998 0.8749999999973749 Si
atom_frac 0.7500000000013749 0.0000000000004998 0.9999999999973747 Si
atom_frac 0.7500000000013749 0.1250000000004998 0.1249999999973748 Si
atom_frac 0.7500000000013751 0.2500000000004998 0.2499999999973750 Si
atom_frac 0.8750000000013749 0.3750000000004999 0.4999999999973749 Si
atom_frac 0.8750000000013749 0.5000000000004999 0.6249999999973749 Si
atom_frac 0.8750000000013749 0.6250000000004999 0.7499999999973751 Si
atom_frac 0.8750000000013749 0.7500000000004999 0.8749999999973749 Si
atom_frac 0.8750000000013747 0.8750000000004998 0.9999999999973747 Si
atom_frac 0.8750000000013749 0.0000000000004998 0.1249999999973750 Si
atom_frac 0.8750000000013749 0.1250000000004998 0.2499999999973748 Si
atom_frac 0.8750000000013750 0.2500000000004998 0.3749999999973750 Si
atom_frac 0.0000000000013749 0.3750000000004999 0.6249999999973749 Si
atom_frac 0.0000000000013749 0.5000000000004999 0.7499999999973749 Si
atom_frac 0.0000000000013749 0.6250000000004999 0.8749999999973749 Si
atom_frac 0.0000000000013749 0.7500000000004997 0.9999999999973749 Si
atom_frac 0.0000000000013749 0.8750000000004998 0.1249999999973750 Si
atom_frac 0.0000000000013749 0.0000000000004998 0.2499999999973750 Si
atom_frac 0.0000000000013749 0.1250000000004998 0.3749999999973747 Si
atom_frac 0.0000000000013749 0.2500000000004998 0.4999999999973749 Si
atom_frac 0.1250000000013749 0.3750000000004998 0.7499999999973749 Si
atom_frac 0.1250000000013749 0.5000000000004998 0.8749999999973749 Si
atom_frac 0.1250000000013749 0.6250000000004997 0.9999999999973749 Si
atom_frac 0.1250000000013749 0.7500000000004999 0.1249999999973750 Si
atom_frac 0.1250000000013749 0.8750000000004999 0.2499999999973750 Si
atom_frac 0.1250000000013749 0.0000000000004998 0.3749999999973749 Si
atom_frac 0.1250000000013749 0.1250000000004998 0.4999999999973750 Si
atom_frac 0.1250000000013749 0.2500000000004998 0.6249999999973750 Si
atom_frac 0.2500000000013749 0.3750000000004999 0.8749999999973749 Si
atom_frac 0.2500000000013748 0.5000000000004999 0.9999999999973749 Si
atom_frac 0.2500000000013750 0.6250000000004999 0.1249999999973750 Si
atom_frac 0.2500000000013748 0.7500000000004997 0.2499999999973750 Si
atom_frac 0.2500000000013749 0.8750000000004996 0.3749999999973750 Si
atom_frac 0.2500000000013749 0.0000000000004998 0.4999999999973749 Si
atom_frac 0.2500000000013749 0.1250000000004998 0.6249999999973748 Si
atom_frac 0.2500000000013749 0.2500000000004998 0.7499999999973751 Si
atom_frac 0.0624999999986250 0.0624999999995000 0.0625000000026250 Si
atom_frac 0.0624999999986250 0.1874999999995000 0.1875000000026250 Si
atom_frac 0.0624999999986250 0.3124999999994999 0.3125000000026250 Si
atom_frac 0.0624999999986250 0.4374999999995000 0.4375000000026250 Si
atom_frac 0.0624999999986250 0.5624999999995001 0.5625000000026249 Si
atom_frac 0.0624999999986250 0.6874999999995000 0.6875000000026250 Si
atom_frac 0.0624999999986250 0.8124999999994998 0.8125000000026249 Si
atom_frac 0.0624999999986250 0.9374999999994998 0.9375000000026250 Si
atom_frac 0.1874999999986251 0.0624999999995000 0.1875000000026250 Si
atom_frac 0.1874999999986250 0.1874999999995000 0.3125000000026250 Si
atom_frac 0.1874999999986250 0.3124999999994999 0.4375000000026250 Si
atom_frac 0.1874999999986250 0.4374999999994998 0.5625000000026250 Si
atom_frac 0.1874999999986250 0.5624999999995000 0.6875000000026250 Si
atom_frac 0.1874999999986250 0.6874999999994998 0.8125000000026250 Si
atom_frac 0.1874999999986250 0.8124999999994998 0.9375000000026250 Si
atom_frac 0.1874999999986250 0.9374999999994998 0.0625000000026250 Si
atom_frac 0.3124999999986250 0.0624999999995000 0.3125000000026250 Si
atom_frac 0.3124999999986250 0.1874999999995000 0.4375000000026250 Si
atom_frac 0.3124999999986249 0.3124999999994999 0.5625000000026250 Si
atom_frac 0.3124999999986250 0.4374999999995000 0.6875000000026250 Si
atom_frac 0.3124999999986250 0.5624999999995001 0.8125000000026249 Si
atom_frac 0.3124999999986249 0.6874999999995001 0.9375000000026250 Si
atom_frac 0.3124999999986249 0.8124999999994996 0.0625000000026250 Si
atom_frac 0.3124999999986249 0.9374999999994997 0.1875000000026250 Si
atom_frac 0.4374999999986249 0.0624999999995000 0.4375000000026250 Si
atom_frac 0.4374999999986250 0.1874999999995000 0.5625000000026249 Si
atom_frac 0.4374999999986249 0.3124999999994999 0.6875000000026250 Si
atom_frac 0.4374999999986249 0.4374999999994998 0.8125000000026250 Si
atom_frac 0.4374999999986249 0.5624999999995001 0.9375000000026250 Si
atom_frac 0.4374999999986249 0.6874999999995001 0.0625000000026250 Si
atom_frac 0.4374999999986249 0.8124999999994998 0.1875000000026250 Si
atom_frac 0.4374999999986249 0.9374999999994998 0.3125000000026250 Si
atom_frac 0.5624999999986248 0.0624999999995000 0.5625000000026249 Si
atom_frac 0.5624999999986249 0.1874999999995000 0.6875000000026249 Si
atom_frac 0.5624999999986249 0.3124999999994999 0.8125000000026249 Si
atom_frac 0.5624999999986249 0.4374999999995000 0.9375000000026250 Si
atom_frac 0.5624999999986249 0.5624999999995000 0.0625000000026250 Si
atom_frac 0.5624999999986250 0.6874999999995000 0.1875000000026250 Si
atom_frac 0.5624999999986249 0.8124999999994998 0.3125000000026248 Si
atom_frac 0.5624999999986249 0.9374999999994998 0.4375000000026250 Si
atom_frac 0.6874999999986249 0.0624999999995000 0.6875000000026250 Si
atom_frac 0.6874999999986249 0.1874999999994999 0.8125000000026249 Si
atom_frac 0.6874999999986251 0.3124999999994999 0.9375000000026250 Si
atom_frac 0.6874999999986249 0.4374999999994999 0.0625000000026250 Si
atom_frac 0.6874999999986250 0.5624999999995001 0.1875000000026250 Si
atom_frac 0.6874999999986250 0.6874999999995001 0.3125000000026250 Si
atom_frac 0.6874999999986250 0.8124999999994998 0.4375000000026250 Si
atom_frac 0.6874999999986249 0.9374999999995001 0.5625000000026250 Si
atom_frac 0.8124999999986247 0.0624999999995000 0.8125000000026249 Si
atom_frac 0.8124999999986247 0.1874999999995000 0.9375000000026249 Si
atom_frac 0.8124999999986249 0.3124999999995000 0.0625000000026248 Si
atom_frac 0.8124999999986247 0.4374999999994999 0.1875000000026248 Si
atom_frac 0.8124999999986247 0.5624999999995000 0.3125000000026250 Si
atom_frac 0.8124999999986250 0.6874999999995000 0.4375000000026250 Si
atom_frac 0.8124999999986249 0.8124999999994998 0.5625000000026247 Si
atom_frac 0.8124999999986247 0.9374999999994998 0.6875000000026250 Si
atom_frac 0.9374999999986250 0.0624999999995000 0.9375000000026250 Si
atom_frac 0.9374999999986248 0.1874999999995000 0.0625000000026250 Si
atom_frac 0.9374999999986250 0.3124999999995000 0.1875000000026250 Si
atom_frac 0.9374999999986250 0.4374999999994999 0.3125000000026250 Si
atom_frac 0.9374999999986250 0.5624999999995001 0.4375000000026250 Si
atom_frac 0.9374999999986250 0.6874999999995001 0.5625000000026250 Si
atom_frac 0.9374999999986250 0.8124999999994998 0.6875000000026247 Si
atom_frac 0.9374999999986248 0.9374999999994998 0.8125000000026250 Si
atom_frac 0.1874999999986250 0.1874999999995000 0.0625000000026250 Si
atom_frac 0.1874999999986250 0.3124999999994999 0.1875000000026250 Si
atom_frac 0.1874999999986250 0.4374999999994999 0.3125000000026250 Si
atom_frac 0.1874999999986250 0.5624999999995000 0.4375000000026250 Si
atom_frac 0.1874999999986250 0.6874999999995000 0.5625000000026250 Si
atom_frac 0.1874999999986250 0.8124999999995000 0.6875000000026250 Si
atom_frac 0.1874999999986250 0.9374999999994998 0.8125000000026249 Si
atom_frac 0.1874999999986250 0.0624999999995000 0.9375000000026250 Si
atom_frac 0.3124999999986250 0.1874999999995000 0.1875000000026250 Si
atom_frac 0.3124999999986250 0.3124999999994999 0.3125000000026250 Si
atom_frac 0.3124999999986250 0.4374999999995000 0.4375000000026250 Si
atom_frac 0.3124999999986250 0.5624999999995000 0.5625000000026248 Si
atom_frac 0.3124999999986249 0.6874999999995000 0.6875000000026250 Si
atom_frac 0.3124999999986250 0.8124999999994998 0.8125000000026249 Si
atom_frac 0.3124999999986250 0.9374999999994997 0.9375000000026249 Si
atom_frac 0.3124999999986250 0.0624999999994999 0.0625000000026250 Si
atom_frac 0.4374999999986249 0.1874999999995000 0.3125000000026250 Si
atom_frac 0.4374999999986249 0.3124999999994999 0.4375000000026250 Si
atom_frac 0.4374999999986249 0.4374999999994998 0.5625000000026250 Si
atom_frac 0.4374999999986249 0.5624999999994998 0.6875000000026250 Si
atom_frac 0.4374999999986249 0.6874999999995001 0.8125000000026250 Si
atom_frac 0.4374999999986249 0.8124999999995000 0.9375000000026250 Si
atom_frac 0.4374999999986249 0.9374999999994997 0.0625000000026250 Si
atom_frac 0.4374999999986249 0.0624999999994999 0.1875000000026250 Si
atom_frac 0.5624999999986250 0.1874999999995000 0.4375000000026250 Si
atom_frac 0.5624999999986250 0.3124999999994999 0.5625000000026250 Si
atom_frac 0.5624999999986249 0.4374999999995000 0.6875000000026250 Si
atom_frac 0.5624999999986250 0.5624999999995000 0.8125000000026250 Si
atom_frac 0.5624999999986251 0.6874999999995001 0.9375000000026250 Si
atom_frac 0.5624999999986249 0.8124999999995000 0.0625000000026250 Si
atom_frac 0.5624999999986249 0.9374999999994997 0.1875000000026250 Si
atom_frac 0.5624999999986249 0.0624999999995000 0.3125000000026250 Si
atom_frac 0.6874999999986249 0.1874999999995000 0.5625000000026248 Si
atom_frac 0.6874999999986249 0.3124999999994999 0.6875000000026249 Si
atom_frac 0.6874999999986249 0.4374999999994999 0.8125000000026249 Si
atom_frac 0.6874999999986250 0.5624999999995000 0.9375000000026249 Si
atom_frac 0.6874999999986249 0.6874999999995001 0.0625000000026250 Si
atom_frac 0.6874999999986249 0.8124999999995000 0.1875000000026250 Si
atom_frac 0.6874999999986249 0.9374999999994998 0.3125000000026248 Si
atom_frac 0.6874999999986249 0.0624999999994999 0.4375000000026250 Si
atom_frac 0.8124999999986249 0.1874999999995000 0.6875000000026250 Si
atom_frac 0.8124999999986250 0.3124999999994999 0.8125000000026250 Si
atom_frac 0.8124999999986250 0.4374999999994999 0.9375000000026250 Si
atom_frac 0.8124999999986249 0.5624999999994997 0.0625000000026250 Si
atom_frac 0.8124999999986250 0.6874999999994998 0.1875000000026250 Si
atom_frac 0.8124999999986250 0.8124999999994998 0.3125000000026250 Si
atom_frac 0.8124999999986250 0.9374999999994997 0.4375000000026250 Si
atom_frac 0.8124999999986250 0.0624999999994999 0.5625000000026250 Si
atom_frac 0.9374999999986250 0.1874999999995000 0.8125000000026249 Si
atom_frac 0.9374999999986250 0.3124999999995000 0.9375000000026249 Si
atom_frac 0.9374999999986250 0.4374999999994999 0.0625000000026248 Si
atom_frac 0.9374999999986250 0.5624999999994998 0.1875000000026248 Si
atom_frac 0.9374999999986250 0.6874999999995001 0.3125000000026250 Si
atom_frac 0.9374999999986251 0.8124999999995000 0.4375000000026250 Si
atom_frac 0.9374999999986248 0.9374999999994997 0.5625000000026248 Si
atom_frac 0.9374999999986250 0.0624999999995000 0.6875000000026250 Si
atom_frac 0.0624999999986249 0.1874999999994999 0.9375000000026249 Si
atom_frac 0.0624999999986249 0.3124999999994999 0.0625000000026250 Si
atom_frac 0.0624999999986249 0.4374999999995000 0.1875000000026250 Si
atom_frac 0.0624999999986249 0.5624999999995000 0.3125000000026250 Si
atom_frac 0.0624999999986249 0.6874999999995001 0.4375000000026250 Si
atom_frac 0.0624999999986249 0.8124999999995000 0.5625000000026250 Si
atom_frac 0.0624999999986249 0.9374999999994997 0.6875000000026248 Si
atom_frac 0.0624999999986249 0.0624999999994999 0.8125000000026249 Si
atom_frac 0.3124999999986250 0.3124999999995000 0.0625000000026250 Si
atom_frac 0.3124999999986250 0.4374999999995000 0.1875000000026250 Si
atom_frac 0.3124999999986250 0.5624999999995000 0.3125000000026250 Si
atom_frac 0.3124999999986249 0.6874999999995000 0.4375000000026250 Si
atom_frac 0.3124999999986250 0.8124999999994998 0.5625000000026250 Si
atom_frac 0.3124999999986250 0.9374999999994997 0.6875000000026250 Si
atom_frac 0.3124999999986250 0.0624999999994999 0.8125000000026249 Si
atom_frac 0.3124999999986250 0.1874999999994999 0.9375000000026250 Si
atom_frac 0.4374999999986251 0.3124999999995000 0.1875000000026250 Si
atom_frac 0.4374999999986249 0.4374999999995000 0.3125000000026250 Si
atom_frac 0.4374999999986249 0.5624999999995000 0.4375000000026250 Si
atom_frac 0.4374999999986249 0.6874999999994998 0.5625000000026250 Si
atom_frac 0.4374999999986249 0.8124999999994998 0.6875000000026250 Si
atom_frac 0.4374999999986249 0.9374999999994998 0.8125000000026250 Si
atom_frac 0.4374999999986249 0.0624999999995000 0.9375000000026250 Si
atom_frac 0.4374999999986249 0.1874999999994999 0.0625000000026250 Si
atom_frac 0.5624999999986250 0.3124999999995000 0.3125000000026250 Si
atom_frac 0.5624999999986250 0.4374999999995000 0.4375000000026250 Si
atom_frac 0.5624999999986250 0.5624999999995000 0.5625000000026248 Si
atom_frac 0.5624999999986250 0.6874999999995000 0.6875000000026250 Si
atom_frac 0.5624999999986250 0.8124999999995000 0.8125000000026250 Si
atom_frac 0.5624999999986250 0.9374999999994998 0.9375000000026250 Si
atom_frac 0.5624999999986249 0.0624999999995000 0.0625000000026250 Si
atom_frac 0.5624999999986250 0.1874999999994999 0.1875000000026250 Si
atom_frac 0.6874999999986250 0.3124999999995000 0.4375000000026250 Si
atom_frac 0.6874999999986249 0.4374999999995000 0.5625000000026250 Si
atom_frac 0.6874999999986250 0.5624999999994998 0.6875000000026250 Si
atom_frac 0.6874999999986250 0.6874999999994998 0.8125000000026250 Si
atom_frac 0.6874999999986251 0.8124999999995000 0.9375000000026250 Si
atom_frac 0.6874999999986249 0.9374999999994998 0.0625000000026250 Si
atom_frac 0.6874999999986249 0.0624999999994999 0.1875000000026250 Si
atom_frac 0.6874999999986250 0.1874999999994999 0.3125000000026250 Si
atom_frac 0.8124999999986249 0.3124999999995000 0.5625000000026248 Si
atom_frac 0.8124999999986249 0.4374999999994999 0.6875000000026249 Si
atom_frac 0.8124999999986247 0.5624999999995000 0.8125000000026249 Si
atom_frac 0.8124999999986249 0.6874999999994998 0.9375000000026249 Si
atom_frac 0.8124999999986249 0.8124999999994998 0.0625000000026250 Si
atom_frac 0.8124999999986247 0.9374999999994998 0.1875000000026250 Si