#=======================================================
# FHI-aims file: ./geometry.in
# Created using the Atomic Simulation Environment (ASE)
# Tue Jun 10 14:21:56 2025
#=======================================================
lattice_vector 5.4088325884509993 0.0000000000639995 0.0000000001369997 
lattice_vector 0.0000000000629998 5.4088325742939993 0.0000000001030003 
lattice_vector 0.0000000001370002 0.0000000001020002 5.4088325742309999 
atom_frac 0.0028969291079032 -0.0001178887617989 0.0012164321166246 Si
atom_frac -0.0017612937799667 0.5182331010073539 0.4934233984054200 Si
atom_frac 0.4904994651505690 0.0088078590039317 0.5041474978328615 Si
atom_frac 0.5168591188440484 0.4864579395306396 0.0155292020660318 Si
atom_frac 0.2448953663132393 0.2534256945883942 0.2407349833235158 Si
atom_frac 0.2561540266939145 0.7375408596703343 0.7472080335119733 Si
atom_frac 0.7433004852232438 0.2445224935398451 0.7368006035723164 Si
atom_frac 0.7471559024709516 0.7511299413866208 0.2609398491721555 Si
