#=======================================================
# FHI-aims file: ./geometry.in
# Created using the Atomic Simulation Environment (ASE)
# Tue Jun 10 08:30:26 2025
#=======================================================
lattice_vector 5.4088325884509993 0.0000000000639995 0.0000000001369997 
lattice_vector 0.0000000000629998 5.4088325742939993 0.0000000001030003 
lattice_vector 0.0000000001370002 0.0000000001020002 5.4088325742309999 
atom_frac -0.0081278119912080 -0.0143994401446276 -0.0145322988222206 Si
    velocity 0.3845253073265680 1.7638195963992307 -2.5488011654258078
atom_frac 0.0173732835821874 0.4788612056749780 0.4960982430367150 Si
    velocity -1.1116873482298590 2.5229462915360212 -2.8023940009619133
atom_frac 0.5120989736234094 0.0029693353809295 0.5172181893821119 Si
    velocity 0.5047705486848496 -1.4542415299003006 0.8463814198333411
atom_frac 0.4807665931467858 0.5320053971785269 0.0102443324294188 Si
    velocity 6.5723471792893751 2.0154064759726311 -1.6159740540705196
atom_frac 0.2527508376479916 0.2263375976421948 0.2303756005197105 Si
    velocity 0.3773237465051299 3.8809453514429397 0.5749816780015691
atom_frac 0.2463640124638870 0.7502489415294064 0.7350110374512862 Si
    velocity -6.9436879050604468 1.2225111961164048 0.3959760606074070
atom_frac 0.7428292060225427 0.2763704472144315 0.7538091644006762 Si
    velocity 0.4290179682652046 -6.4575164142265198 1.5281559170069297
atom_frac 0.7559449055105865 0.7476065155256870 0.2717757316025755 Si
    velocity -0.2126094967808208 -3.4938709673404076 3.6216741450089942
