#=======================================================
# FHI-aims file: geometry.in
# Created using the Atomic Simulation Environment (ASE)
# Tue Jun 10 14:58:52 2025
#=======================================================
lattice_vector 5.4088325884509993 0.0000000000639995 0.0000000001369997 
lattice_vector 0.0000000000629998 5.4088325742939993 0.0000000001030003 
lattice_vector 0.0000000001370002 0.0000000001020002 5.4088325742309999 
atom 0.2229851938066864 -0.1274975749979348 0.0718392837985853 Si
atom -0.2419909817590081 2.7702181503241290 2.6982447017082514 Si
atom 2.7173191417750862 0.1527685377504283 2.7481372907127239 Si
atom 2.6861962314687000 2.5327086307983873 -0.0098415127885686 Si
atom 1.2140077396300690 1.4677005532199840 1.3912237631540609 Si
atom 1.4837262569825200 4.0171927910916203 4.0260970567907286 Si
atom 4.2012379030535332 1.2339679365658047 4.0478429339001867 Si
atom 3.9430162809282994 4.1794386988326577 1.2529542061256549 Si
