#=======================================================
# FHI-aims file: geometry.in
# Created using the Atomic Simulation Environment (ASE)
# Tue Jun 10 15:09:24 2025
#=======================================================
lattice_vector 5.4088325884509993 0.0000000000639995 0.0000000001369997 
lattice_vector 0.0000000000629998 5.4088325742939993 0.0000000001030003 
lattice_vector 0.0000000001370002 0.0000000001020002 5.4088325742309999 
atom -0.0381105673845930 -0.0591386661403586 -0.0261804743428367 Si
atom 0.1111402454552477 2.8588734005832941 2.5830962387706062 Si
atom 2.7554789767063861 0.0991627638223537 2.7920884812674296 Si
atom 2.6862468645493145 2.5421626781837579 0.0066883423796733 Si
atom 1.1864963992525315 1.2449792401051951 1.4977992172411889 Si
atom 1.3146559912606051 4.0336484777203561 4.0838355613952553 Si
atom 4.2378714043929069 1.4539067359293940 4.0748150923034778 Si
atom 3.9727184520060859 4.0529030930962895 1.2143552644049014 Si
