#=======================================================
# FHI-aims file: geometry.in
# Created using the Atomic Simulation Environment (ASE)
# Tue Jun 10 14:30:56 2025
#=======================================================
lattice_vector 5.4088325884509993 0.0000000000639995 0.0000000001369997 
lattice_vector 0.0000000000629998 5.4088325742939993 0.0000000001030003 
lattice_vector 0.0000000001370002 0.0000000001020002 5.4088325742309999 
atom 0.0060111194411889 0.0546899024748577 0.0025140583467237 Si
atom -0.0469759773081900 2.7494383643342140 2.7111482741468129 Si
atom 2.7019400306403933 -0.0187450855736615 2.7110773006454303 Si
atom 2.7619782657161998 2.6256118802104100 -0.0203926561603773 Si
atom 1.3409699077697630 1.3799600483773347 1.3827814902127511 Si
atom 1.4040189767154696 4.0771444292482535 4.0780584807604079 Si
atom 4.0363829697546034 1.2932910429926248 4.0808561493684117 Si
atom 4.0221724732591246 4.0651071413093138 1.2804546260907690 Si
