#=======================================================
# FHI-aims file: ./geometry.in
# Created using the Atomic Simulation Environment (ASE)
# Tue Jun 10 15:15:20 2025
#=======================================================
lattice_vector 5.4088325884509993 0.0000000000639995 0.0000000001369997 
lattice_vector 0.0000000000629998 5.4088325742939993 0.0000000001030003 
lattice_vector 0.0000000001370002 0.0000000001020002 5.4088325742309999 
atom_frac -0.0302167418978824 0.0086328675017966 0.0049190793787216 Si
atom_frac 0.0186500191355520 0.4916405029347437 0.5210534534111121 Si
atom_frac 0.5019082396047195 -0.0064600858128654 0.4839869602805658 Si
atom_frac 0.5003327742945232 0.5129414321338616 0.0148776320928879 Si
atom_frac 0.2519776699009357 0.2444220995409020 0.2353402832969812 Si
atom_frac 0.2677500159010615 0.7549165138288261 0.7408432146248350 Si
atom_frac 0.7419123514432707 0.2558020767799861 0.7412550240459651 Si
atom_frac 0.7476856715937404 0.7381045930746546 0.2577243528687236 Si
