#=======================================================
# FHI-aims file: ./geometry.in
# Created using the Atomic Simulation Environment (ASE)
# Tue Jun 10 14:54:27 2025
#=======================================================
lattice_vector 5.4088325884509993 0.0000000000639995 0.0000000001369997 
lattice_vector 0.0000000000629998 5.4088325742939993 0.0000000001030003 
lattice_vector 0.0000000001370002 0.0000000001020002 5.4088325742309999 
atom_frac -0.0111409107978341 -0.0194620863221124 0.0038065508788259 Si
atom_frac 0.0276556229550746 0.4804193635167920 0.4903797027312904 Si
atom_frac 0.4823439127286275 0.0356613973398255 0.4914650779528202 Si
atom_frac 0.5056942346157437 0.4915602186748229 0.0065634809233495 Si
atom_frac 0.2374883442370023 0.2432713526662817 0.2284377410534545 Si
atom_frac 0.2589435957271924 0.7504686260520784 0.7534573876400865 Si
atom_frac 0.7564680308240112 0.2662119197417409 0.7597798641866870 Si
atom_frac 0.7425471697223107 0.7518692083624433 0.2661101946354776 Si
