#=======================================================
# FHI-aims file: ./geometry.in
# Created using the Atomic Simulation Environment (ASE)
# Tue Jun 10 15:17:18 2025
#=======================================================
lattice_vector 5.4088325884509993 0.0000000000639995 0.0000000001369997 
lattice_vector 0.0000000000629998 5.4088325742939993 0.0000000001030003 
lattice_vector 0.0000000001370002 0.0000000001020002 5.4088325742309999 
atom_frac 0.0045910023872180 -0.0253062649123314 0.0132523076957672 Si
atom_frac 0.0123012245684907 0.5389578949324991 0.4950563449482530 Si
atom_frac 0.5097993499577583 -0.0031579867177192 0.4862288501306505 Si
atom_frac 0.4779276972311600 0.4554555045809358 -0.0059169913833562 Si
atom_frac 0.2177318828932788 0.2797732662514516 0.2637452883574891 Si
atom_frac 0.2754273942838946 0.7795340189491500 0.7521781480170969 Si
atom_frac 0.7608821121180869 0.2338730527923494 0.7602158945683953 Si
atom_frac 0.7413393365689889 0.7408705142122738 0.2352401576647584 Si
