#=======================================================
# FHI-aims file: ./geometry.in
# Created using the Atomic Simulation Environment (ASE)
# Tue Jun 10 14:59:06 2025
#=======================================================
lattice_vector 5.4088325884509993 0.0000000000639995 0.0000000001369997 
lattice_vector 0.0000000000629998 5.4088325742939993 0.0000000001030003 
lattice_vector 0.0000000001370002 0.0000000001020002 5.4088325742309999 
atom_frac 0.0027925261248910 -0.0054683006779584 0.0081049817521117 Si
atom_frac -0.0187648561884150 0.4755987911252084 0.5343329795223014 Si
atom_frac 0.5290092272676850 0.0027766275475919 0.4754336492913764 Si
atom_frac 0.4847587691780439 0.5189772869770762 -0.0177775400709101 Si
atom_frac 0.2574454826222294 0.2685143999303894 0.2561273626474539 Si
atom_frac 0.2570470881718571 0.7704502705355518 0.7373551017736600 Si
atom_frac 0.7157668989142844 0.2317027089624790 0.7652626592727960 Si
atom_frac 0.7719448638986914 0.7374482156190698 0.2411608058077576 Si
