#=======================================================
# FHI-aims file: ./geometry.in
# Created using the Atomic Simulation Environment (ASE)
# Tue Jun 10 17:51:00 2025
#=======================================================
lattice_vector 5.2090248247871997 -0.0000000000000001 -0.0000000000000001 
lattice_vector -0.0000000000000001 5.2090248247871997 0.0000000000000001 
lattice_vector 0.0000000000000001 0.0000000000000001 5.2090248247871997 
atom_frac 0.0019197451224296 0.0000000000000000 0.0000000000000000 Si
atom_frac 0.0000000000000000 0.5000000000000000 0.5000000000000000 Si
atom_frac 0.5000000000000000 0.0000000000000000 0.5000000000000000 Si
atom_frac 0.5000000000000000 0.5000000000000000 -0.0000000000000000 Si
atom_frac 0.2500000000000000 0.2500000000000000 0.2500000000000000 Si
atom_frac 0.2500000000000000 0.7500000000000001 0.7500000000000000 Si
atom_frac 0.7500000000000000 0.2500000000000000 0.7500000000000001 Si
atom_frac 0.7500000000000000 0.7500000000000001 0.2500000000000000 Si
