#=======================================================
# FHI-aims file: geometry.in.supercell
# Created using the Atomic Simulation Environment (ASE)
# Mon Jun  9 19:02:19 2025

# Additional information:
#  Number of atoms:     128
#=======================================================
lattice_vector 0.0000000004000000 10.8176651487920008 10.8176651486680004 
lattice_vector 10.8176651771760000 0.0000000003320000 10.8176651487359994 
lattice_vector 10.8176651770279992 10.8176651487159994 0.0000000004800000 
atom 0.0000000000649060 0.0000000000730192 0.0000000000351574 Si
atom 0.0000000001649060 2.7044162872710196 2.7044162872021578 Si
atom 0.0000000002649060 5.4088325744690193 5.4088325743691579 Si
atom 0.0000000003649060 8.1132488616670209 8.1132488615361567 Si
atom 2.7044162943589058 0.0000000001560192 2.7044162872191571 Si
atom 2.7044162944589059 2.7044162873540194 5.4088325743861576 Si
atom 2.7044162945589059 5.4088325745520196 8.1132488615531582 Si
atom 2.7044162946589059 8.1132488617500211 10.8176651487201578 Si
atom 5.4088325886529063 0.0000000002390192 5.4088325744031573 Si
atom 5.4088325887529063 2.7044162874370197 8.1132488615701579 Si
atom 5.4088325888529054 5.4088325746350190 10.8176651487371576 Si
atom 5.4088325889529054 8.1132488618330214 13.5220814359041572 Si
atom 8.1132488829469072 0.0000000003220192 8.1132488615871576 Si
atom 8.1132488830469072 2.7044162875200195 10.8176651487541573 Si
atom 8.1132488831469072 5.4088325747180193 13.5220814359211570 Si
atom 8.1132488832469072 8.1132488619160217 16.2264977230881584 Si
atom 2.7044162943219057 2.7044162872520188 0.0000000001551574 Si
atom 2.7044162944219057 5.4088325744500194 2.7044162873221578 Si
atom 2.7044162945219057 8.1132488616480192 5.4088325744891579 Si
atom 2.7044162946219057 10.8176651488460198 8.1132488616561567 Si
atom 5.4088325886159057 2.7044162873350190 2.7044162873391571 Si
atom 5.4088325887159057 5.4088325745330188 5.4088325745061576 Si
atom 5.4088325888159057 8.1132488617310194 8.1132488616731582 Si
atom 5.4088325889159057 10.8176651489290201 10.8176651488401578 Si
atom 8.1132488829099056 2.7044162874180189 5.4088325745231574 Si
atom 8.1132488830099057 5.4088325746160191 8.1132488616901579 Si
atom 8.1132488831099057 8.1132488618140179 10.8176651488571576 Si
atom 8.1132488832099057 10.8176651490120204 13.5220814360241572 Si
atom 10.8176651772039065 2.7044162875010187 8.1132488617071576 Si
atom 10.8176651773039065 5.4088325746990193 10.8176651488741573 Si
atom 10.8176651774039065 8.1132488618970182 13.5220814360411570 Si
atom 10.8176651775039065 10.8176651490950206 16.2264977232081584 Si
atom 5.4088325885789050 5.4088325744310186 0.0000000002751574 Si
atom 5.4088325886789050 8.1132488616290193 2.7044162874421578 Si
atom 5.4088325887789050 10.8176651488270181 5.4088325746091579 Si
atom 5.4088325888789051 13.5220814360250188 8.1132488617761567 Si
atom 8.1132488828729059 5.4088325745140189 2.7044162874591571 Si
atom 8.1132488829729059 8.1132488617120195 5.4088325746261576 Si
atom 8.1132488830729059 10.8176651489100184 8.1132488617931582 Si
atom 8.1132488831729059 13.5220814361080190 10.8176651489601579 Si
atom 10.8176651771669050 5.4088325745970183 5.4088325746431574 Si
atom 10.8176651772669050 8.1132488617950198 8.1132488618101579 Si
atom 10.8176651773669050 10.8176651489930187 10.8176651489771576 Si
atom 10.8176651774669050 13.5220814361910193 13.5220814361441573 Si
atom 13.5220814714609059 5.4088325746800185 8.1132488618271577 Si
atom 13.5220814715609059 8.1132488618780183 10.8176651489941573 Si
atom 13.5220814716609059 10.8176651490760189 13.5220814361611570 Si
atom 13.5220814717609059 13.5220814362740196 16.2264977233281584 Si
atom 8.1132488828359044 8.1132488616100193 0.0000000003951574 Si
atom 8.1132488829359044 10.8176651488080182 2.7044162875621578 Si
atom 8.1132488830359044 13.5220814360060189 5.4088325747291579 Si
atom 8.1132488831359044 16.2264977232040195 8.1132488618961567 Si
atom 10.8176651771299053 8.1132488616930178 2.7044162875791571 Si
atom 10.8176651772299053 10.8176651488910185 5.4088325747461576 Si
atom 10.8176651773299053 13.5220814360890191 8.1132488619131582 Si
atom 10.8176651774299053 16.2264977232870180 10.8176651490801579 Si
atom 13.5220814714239062 8.1132488617760181 5.4088325747631574 Si
atom 13.5220814715239062 10.8176651489740188 8.1132488619301579 Si
atom 13.5220814716239044 13.5220814361720176 10.8176651490971576 Si
atom 13.5220814717239044 16.2264977233700201 13.5220814362641573 Si
atom 16.2264977657179053 8.1132488618590184 8.1132488619471577 Si
atom 16.2264977658179070 10.8176651490570190 10.8176651491141573 Si
atom 16.2264977659179053 13.5220814362550179 13.5220814362811570 Si
atom 16.2264977660179071 16.2264977234530186 16.2264977234481584 Si
atom 1.3522081470978402 1.3522081435419797 1.3522081435825901 Si
atom 1.3522081471978400 4.0566244307399799 4.0566244307495909 Si
atom 1.3522081472978400 6.7610407179379797 6.7610407179165906 Si
atom 1.3522081473978400 9.4654570051359812 9.4654570050835893 Si
atom 4.0566244413918406 1.3522081436249798 4.0566244307665906 Si
atom 4.0566244414918406 4.0566244308229802 6.7610407179335903 Si
atom 4.0566244415918407 6.7610407180209799 9.4654570051005891 Si
atom 4.0566244416918407 9.4654570052189815 12.1698732922675887 Si
atom 6.7610407356858406 1.3522081437079798 6.7610407179505900 Si
atom 6.7610407357858406 4.0566244309059805 9.4654570051175888 Si
atom 6.7610407358858406 6.7610407181039802 12.1698732922845885 Si
atom 6.7610407359858407 9.4654570053019818 14.8742895794515881 Si
atom 9.4654570299798415 1.3522081437909799 9.4654570051345885 Si
atom 9.4654570300798415 4.0566244309889798 12.1698732923015900 Si
atom 9.4654570301798415 6.7610407181869796 14.8742895794685897 Si
atom 9.4654570302798415 9.4654570053849820 17.5787058666355875 Si
atom 4.0566244413548400 4.0566244307209800 1.3522081437025901 Si
atom 4.0566244414548400 6.7610407179189806 4.0566244308695909 Si
atom 4.0566244415548400 9.4654570051169795 6.7610407180365906 Si
atom 4.0566244416548400 12.1698732923149802 9.4654570052035893 Si
atom 6.7610407356488400 4.0566244308039803 4.0566244308865906 Si
atom 6.7610407357488400 6.7610407180019800 6.7610407180535903 Si
atom 6.7610407358488400 9.4654570051999798 9.4654570052205891 Si
atom 6.7610407359488400 12.1698732923979804 12.1698732923875887 Si
atom 9.4654570299428400 4.0566244308869797 6.7610407180705900 Si
atom 9.4654570300428400 6.7610407180849803 9.4654570052375888 Si
atom 9.4654570301428400 9.4654570052829801 12.1698732924045885 Si
atom 9.4654570302428400 12.1698732924809807 14.8742895795715881 Si
atom 12.1698733242368409 4.0566244309699799 9.4654570052545886 Si
atom 12.1698733243368409 6.7610407181679806 12.1698732924215900 Si
atom 12.1698733244368409 9.4654570053659803 14.8742895795885897 Si
atom 12.1698733245368409 12.1698732925639810 17.5787058667555876 Si
atom 6.7610407356118403 6.7610407178999798 1.3522081438225901 Si
atom 6.7610407357118403 9.4654570050979796 4.0566244309895909 Si
atom 6.7610407358118403 12.1698732922959802 6.7610407181565906 Si
atom 6.7610407359118403 14.8742895794939809 9.4654570053235894 Si
atom 9.4654570299058403 6.7610407179829801 4.0566244310065906 Si
atom 9.4654570300058403 9.4654570051809799 6.7610407181735903 Si
atom 9.4654570301058403 12.1698732923789805 9.4654570053405891 Si
atom 9.4654570302058403 14.8742895795769812 12.1698732925075888 Si
atom 12.1698733241998411 6.7610407180659795 6.7610407181905900 Si
atom 12.1698733242998411 9.4654570052639802 9.4654570053575888 Si
atom 12.1698733243998412 12.1698732924619808 12.1698732925245885 Si
atom 12.1698733244998412 14.8742895796599814 14.8742895796915882 Si
atom 14.8742896184938402 6.7610407181489798 9.4654570053745886 Si
atom 14.8742896185938402 9.4654570053469804 12.1698732925415900 Si
atom 14.8742896186938403 12.1698732925449793 14.8742895797085897 Si
atom 14.8742896187938403 14.8742895797429817 17.5787058668755876 Si
atom 9.4654570298688405 9.4654570050789797 1.3522081439425901 Si
atom 9.4654570299688405 12.1698732922769803 4.0566244311095909 Si
atom 9.4654570300688405 14.8742895794749792 6.7610407182765906 Si
atom 9.4654570301688405 17.5787058666729799 9.4654570054435894 Si
atom 12.1698733241628396 9.4654570051619800 4.0566244311265907 Si
atom 12.1698733242628396 12.1698732923599806 6.7610407182935903 Si
atom 12.1698733243628396 14.8742895795579795 9.4654570054605891 Si
atom 12.1698733244628396 17.5787058667559819 12.1698732926275888 Si
atom 14.8742896184568405 9.4654570052449802 6.7610407183105901 Si
atom 14.8742896185568405 12.1698732924429809 9.4654570054775888 Si
atom 14.8742896186568405 14.8742895796409798 12.1698732926445885 Si
atom 14.8742896187568405 17.5787058668389804 14.8742895798115882 Si
atom 17.5787059127508414 9.4654570053279787 9.4654570054945886 Si
atom 17.5787059128508396 12.1698732925259794 12.1698732926615900 Si
atom 17.5787059129508414 14.8742895797239800 14.8742895798285897 Si
atom 17.5787059130508396 17.5787058669219824 17.5787058669955876 Si
