#=======================================================
# FHI-aims file: geometry.in
# Created using the Atomic Simulation Environment (ASE)
# Tue Jun 10 14:55:05 2025
#=======================================================
lattice_vector 5.4088325884509993 0.0000000000639995 0.0000000001369997 
lattice_vector 0.0000000000629998 5.4088325742939993 0.0000000001030003 
lattice_vector 0.0000000001370002 0.0000000001020002 5.4088325742309999 
atom -0.0385768680760422 0.0798386549289944 0.1094828888692598 Si
atom 0.0622901628963129 2.7428248552984398 2.6936721727897024 Si
atom 2.6558836298617332 -0.1155972204645397 2.6546763794044246 Si
atom 2.7336144369492010 2.7400375068822740 -0.1677930118944747 Si
atom 1.4982906988071338 1.3272425934411269 1.3408774614823742 Si
atom 1.3122270134225116 4.1870133092818183 4.0912264911718781 Si
atom 3.9924717898524147 1.2448741992320091 4.1017122595960611 Si
atom 4.0102969022519535 4.0202638246856068 1.4026430820029878 Si
