#=======================================================
# FHI-aims file: ./geometry.in
# Created using the Atomic Simulation Environment (ASE)
# Tue Jun 10 15:08:42 2025
#=======================================================
lattice_vector 5.4088325884509993 0.0000000000639995 0.0000000001369997 
lattice_vector 0.0000000000629998 5.4088325742939993 0.0000000001030003 
lattice_vector 0.0000000001370002 0.0000000001020002 5.4088325742309999 
atom_frac 0.0198141924071937 -0.0187888377333679 -0.0110767529857603 Si
atom_frac -0.0167587044058276 0.5483514596074806 0.4714971248748636 Si
atom_frac 0.4989733329028062 -0.0022385010160948 0.4977960509922720 Si
atom_frac 0.5005685616366635 0.4508961472307870 0.0386918971160442 Si
atom_frac 0.2122063298665640 0.2348130318103081 0.2586732536595117 Si
atom_frac 0.2947228381793021 0.7481889813438065 0.7556782945253465 Si
atom_frac 0.7638253514730884 0.2622086024951944 0.7437222593579604 Si
atom_frac 0.7266480979464709 0.7765691163180299 0.2450178724583185 Si
