#=======================================================
# FHI-aims file: ./geometry.in
# Created using the Atomic Simulation Environment (ASE)
# Tue Jun 10 15:01:21 2025
#=======================================================
lattice_vector 5.4088325884509993 0.0000000000639995 0.0000000001369997 
lattice_vector 0.0000000000629998 5.4088325742939993 0.0000000001030003 
lattice_vector 0.0000000001370002 0.0000000001020002 5.4088325742309999 
atom_frac -0.0213687812921905 -0.0371529171078774 0.0165176341224859 Si
atom_frac 0.0080728197064395 0.5293307016992413 0.5140353886050666 Si
atom_frac 0.4818501167298642 0.0296540702618273 0.4825022878486541 Si
atom_frac 0.5363178339756113 0.4815111862063130 -0.0217002451642333 Si
atom_frac 0.2116267809514862 0.2736228386588595 0.2319143123635684 Si
atom_frac 0.2784038273787577 0.7494303324833955 0.7761854154826114 Si
atom_frac 0.7695361091128569 0.2273718190362067 0.7401769756213357 Si
atom_frac 0.7355612934499363 0.7462319687544307 0.2603682311229323 Si
