#=======================================================
# FHI-aims file: geometry.in
# Created using the Atomic Simulation Environment (ASE)
# Tue Jun 10 14:49:55 2025
#=======================================================
lattice_vector 5.4088325884509993 0.0000000000639995 0.0000000001369997 
lattice_vector 0.0000000000629998 5.4088325742939993 0.0000000001030003 
lattice_vector 0.0000000001370002 0.0000000001020002 5.4088325742309999 
atom 0.0946465889613667 0.0588169867829725 0.0251075841300224 Si
atom -0.1248341738764282 2.6574995173534641 2.6996599435454871 Si
atom 2.5473908798855089 -0.0708900838330295 2.6432121789933785 Si
atom 2.8284738460558021 2.7721244446520692 -0.0277690631524655 Si
atom 1.4122513647802741 1.4553226889612432 1.4032013894544300 Si
atom 1.3088661900140004 3.9001459517759773 4.0926624234495392 Si
atom 4.0129231209836345 1.2928301795537140 4.0391259111537270 Si
atom 4.1467799489808908 4.1606480381100441 1.3512973558368553 Si
