#=======================================================
# FHI-aims file: ./geometry.in
# Created using the Atomic Simulation Environment (ASE)
# Tue Jun 10 15:00:05 2025
#=======================================================
lattice_vector 5.4088325884509993 0.0000000000639995 0.0000000001369997 
lattice_vector 0.0000000000629998 5.4088325742939993 0.0000000001030003 
lattice_vector 0.0000000001370002 0.0000000001020002 5.4088325742309999 
atom_frac -0.0077402380351789 -0.0166046569565666 0.0012269761975224 Si
atom_frac 0.0070057772538780 0.4855298740143523 0.5342429770176270 Si
atom_frac 0.5010919600611294 0.0281997372890773 0.4833368447256476 Si
atom_frac 0.4900725712236892 0.5205346528950100 -0.0286049475490810 Si
atom_frac 0.2465370608142430 0.2499787337643817 0.2310958640335843 Si
atom_frac 0.2622346675311288 0.7619889712600394 0.7310414528522095 Si
atom_frac 0.7372222489232619 0.2353073338526146 0.7840130578129455 Si
atom_frac 0.7635759521993257 0.7350653538340426 0.2636477749078759 Si
