#=======================================================
# FHI-aims file: geometry.in.supercell
# Created using the Atomic Simulation Environment (ASE)
# Tue Jun 10 17:56:28 2025

# Additional information:
#  Number of atoms:     8
#=======================================================
lattice_vector 5.5345888763364002 -0.0000000000000002 -0.0000000000000002 
lattice_vector -0.0000000000000002 5.5345888763364002 0.0000000000000002 
lattice_vector 0.0000000000000002 0.0000000000000002 5.5345888763364002 
atom 0.0000000000000000 0.0000000000000000 0.0000000000000000 Si
atom 0.0000000000000000 2.7672944381682001 2.7672944381682001 Si
atom 2.7672944381682001 0.0000000000000000 2.7672944381682001 Si
atom 2.7672944381682001 2.7672944381682001 0.0000000000000000 Si
atom 1.3836472190841000 1.3836472190841000 1.3836472190841000 Si
atom 1.3836472190841000 4.1509416572523001 4.1509416572523001 Si
atom 4.1509416572523001 1.3836472190841000 4.1509416572523001 Si
atom 4.1509416572523001 4.1509416572523001 1.3836472190841000 Si
