#=======================================================
# FHI-aims file: geometry.in
# Created using the Atomic Simulation Environment (ASE)
# Tue Jun 10 14:55:18 2025
#=======================================================
lattice_vector 5.4088325884509993 0.0000000000639995 0.0000000001369997 
lattice_vector 0.0000000000629998 5.4088325742939993 0.0000000001030003 
lattice_vector 0.0000000001370002 0.0000000001020002 5.4088325742309999 
atom -0.0415767116808040 0.0023928661803865 0.0811649296298028 Si
atom 0.0136925323296654 2.7204191807626494 2.6245139218311762 Si
atom 2.7603334120531997 0.0717318865052675 2.7106965848364299 Si
atom 2.6436506569273988 2.7563560096620776 -0.0956727958823303 Si
atom 1.3637957460229118 1.3228371265626775 1.3497270454603605 Si
atom 1.3734772268319400 4.1908311234573530 4.0011092059799385 Si
atom 4.1233175155622472 1.3495484410987379 4.1365524231082578 Si
atom 3.9898073878200271 3.8123810887807603 1.4184064084495722 Si
